!Agilent Technologies,E8364B,MY43040633,A.07.50.37
!Agilent E8364B: A.07.50.37
!Date: Tuesday, December 16, 2025 16:57:43
!Correction: S11(Full 1 Port(1)) 
!S1P File: Measurement: S11:
# Hz S  RI   R 50
1000000000  1.660651e-001  9.600323e-001 
1005000000  1.802648e-001  9.564017e-001 
1010000000  1.945611e-001  9.536949e-001 
1015000000  2.093827e-001  9.495696e-001 
1020000000  2.230807e-001  9.462078e-001 
1025000000  2.377554e-001  9.420349e-001 
1030000000  2.511289e-001  9.376215e-001 
1035000000  2.646346e-001  9.335784e-001 
1040000000  2.781170e-001  9.298527e-001 
1045000000  2.913135e-001  9.258338e-001 
1050000000  3.055006e-001  9.226670e-001 
1055000000  3.205974e-001  9.176237e-001 
1060000000  3.348686e-001  9.133814e-001 
1065000000  3.487533e-001  9.078162e-001 
1070000000  3.642679e-001  9.024249e-001 
1075000000  3.773287e-001  8.968059e-001 
1080000000  3.919524e-001  8.903627e-001 
1085000000  4.047952e-001  8.844830e-001 
1090000000  4.184976e-001  8.776894e-001 
1095000000  4.321786e-001  8.702511e-001 
1100000000  4.448006e-001  8.629378e-001 
1105000000  4.583755e-001  8.551579e-001 
1110000000  4.705121e-001  8.473799e-001 
1115000000  4.825374e-001  8.392521e-001 
1120000000  4.945684e-001  8.308992e-001 
1125000000  5.056309e-001  8.231715e-001 
1130000000  5.164164e-001  8.143890e-001 
1135000000  5.276612e-001  8.066832e-001 
1140000000  5.386667e-001  7.988995e-001 
1145000000  5.491327e-001  7.905961e-001 
1150000000  5.595614e-001  7.818730e-001 
1155000000  5.695084e-001  7.735547e-001 
1160000000  5.800678e-001  7.659165e-001 
1165000000  5.894163e-001  7.576100e-001 
1170000000  5.986299e-001  7.504784e-001 
1175000000  6.094758e-001  7.422995e-001 
1180000000  6.201084e-001  7.352005e-001 
1185000000  6.306023e-001  7.270641e-001 
1190000000  6.409850e-001  7.180670e-001 
1195000000  6.503778e-001  7.097668e-001 
1200000000  6.605029e-001  7.005525e-001 
1205000000  6.696088e-001  6.921545e-001 
1210000000  6.794333e-001  6.830736e-001 
1215000000  6.894670e-001  6.741439e-001 
1220000000  6.995859e-001  6.646858e-001 
1225000000  7.094108e-001  6.549546e-001 
1230000000  7.191693e-001  6.445505e-001 
1235000000  7.287895e-001  6.347129e-001 
1240000000  7.386218e-001  6.237126e-001 
1245000000  7.473381e-001  6.131385e-001 
1250000000  7.563065e-001  6.016470e-001 
1255000000  7.643116e-001  5.905887e-001 
1260000000  7.725785e-001  5.792378e-001 
1265000000  7.810985e-001  5.678096e-001 
1270000000  7.888663e-001  5.560080e-001 
1275000000  7.962289e-001  5.437029e-001 
1280000000  8.038159e-001  5.313210e-001 
1285000000  8.104777e-001  5.189782e-001 
1290000000  8.161770e-001  5.076882e-001 
1295000000  8.222526e-001  4.954905e-001 
1300000000  8.283152e-001  4.843995e-001 
1305000000  8.346121e-001  4.732650e-001 
1310000000  8.403596e-001  4.617116e-001 
1315000000  8.464940e-001  4.500321e-001 
1320000000  8.529151e-001  4.381898e-001 
1325000000  8.583575e-001  4.262630e-001 
1330000000  8.642616e-001  4.139081e-001 
1335000000  8.688295e-001  4.018263e-001 
1340000000  8.741372e-001  3.897387e-001 
1345000000  8.794544e-001  3.784334e-001 
1350000000  8.846056e-001  3.661565e-001 
1355000000  8.901638e-001  3.531861e-001 
1360000000  8.943374e-001  3.413611e-001 
1365000000  8.986982e-001  3.289815e-001 
1370000000  9.035888e-001  3.166283e-001 
1375000000  9.093286e-001  3.034897e-001 
1380000000  9.133092e-001  2.899937e-001 
1385000000  9.169948e-001  2.769116e-001 
1390000000  9.198993e-001  2.638983e-001 
1395000000  9.231550e-001  2.505597e-001 
1400000000  9.266247e-001  2.375111e-001 
1405000000  9.291698e-001  2.245693e-001 
1410000000  9.321244e-001  2.114769e-001 
1415000000  9.348589e-001  1.984163e-001 
1420000000  9.366174e-001  1.849710e-001 
1425000000  9.388056e-001  1.726692e-001 
1430000000  9.421252e-001  1.586838e-001 
1435000000  9.445974e-001  1.450499e-001 
1440000000  9.464476e-001  1.313595e-001 
1445000000  9.474602e-001  1.178920e-001 
1450000000  9.491385e-001  1.047351e-001 
1455000000  9.502599e-001  9.068502e-002 
1460000000  9.510614e-001  7.778322e-002 
1465000000  9.525817e-001  6.340197e-002 
1470000000  9.538147e-001  4.878465e-002 
1475000000  9.539028e-001  3.515771e-002 
1480000000  9.548087e-001  2.150765e-002 
1485000000  9.549018e-001  7.415809e-003 
1490000000  9.545053e-001  -6.235625e-003 
1495000000  9.550101e-001  -2.099576e-002 
1500000000  9.544882e-001  -3.438974e-002 
1505000000  9.538430e-001  -4.853401e-002 
1510000000  9.533186e-001  -6.218671e-002 
1515000000  9.523934e-001  -7.589391e-002 
1520000000  9.514803e-001  -8.963606e-002 
1525000000  9.504241e-001  -1.033782e-001 
1530000000  9.492130e-001  -1.167634e-001 
1535000000  9.479226e-001  -1.309293e-001 
1540000000  9.464818e-001  -1.460122e-001 
1545000000  9.442810e-001  -1.589260e-001 
1550000000  9.422340e-001  -1.731196e-001 
1555000000  9.400862e-001  -1.868435e-001 
1560000000  9.378846e-001  -2.007543e-001 
1565000000  9.356439e-001  -2.147319e-001 
1570000000  9.326472e-001  -2.281245e-001 
1575000000  9.296731e-001  -2.422762e-001 
1580000000  9.260103e-001  -2.557118e-001 
1585000000  9.223707e-001  -2.708089e-001 
1590000000  9.181967e-001  -2.834192e-001 
1595000000  9.140851e-001  -2.977355e-001 
1600000000  9.094167e-001  -3.121488e-001 
1605000000  9.044498e-001  -3.244352e-001 
1610000000  8.994715e-001  -3.386125e-001 
1615000000  8.944927e-001  -3.514692e-001 
1620000000  8.888916e-001  -3.662874e-001 
1625000000  8.831947e-001  -3.789327e-001 
1630000000  8.772209e-001  -3.930974e-001 
1635000000  8.709843e-001  -4.056583e-001 
1640000000  8.642728e-001  -4.180030e-001 
1645000000  8.574113e-001  -4.315390e-001 
1650000000  8.505516e-001  -4.444612e-001 
1655000000  8.431662e-001  -4.573394e-001 
1660000000  8.359831e-001  -4.700689e-001 
1665000000  8.283812e-001  -4.827936e-001 
1670000000  8.206285e-001  -4.948419e-001 
1675000000  8.125947e-001  -5.071823e-001 
1680000000  8.042785e-001  -5.194110e-001 
1685000000  7.957978e-001  -5.321980e-001 
1690000000  7.873817e-001  -5.445080e-001 
1695000000  7.788857e-001  -5.567396e-001 
1700000000  7.701828e-001  -5.688018e-001 
1705000000  7.610756e-001  -5.806893e-001 
1710000000  7.521850e-001  -5.927307e-001 
1715000000  7.426782e-001  -6.049739e-001 
1720000000  7.331917e-001  -6.170846e-001 
1725000000  7.230111e-001  -6.290147e-001 
1730000000  7.128405e-001  -6.408479e-001 
1735000000  7.022226e-001  -6.524697e-001 
1740000000  6.920462e-001  -6.634180e-001 
1745000000  6.804655e-001  -6.757775e-001 
1750000000  6.699347e-001  -6.857720e-001 
1755000000  6.581328e-001  -6.973075e-001 
1760000000  6.460373e-001  -7.084236e-001 
1765000000  6.345767e-001  -7.183145e-001 
1770000000  6.225699e-001  -7.286512e-001 
1775000000  6.099655e-001  -7.390561e-001 
1780000000  5.982243e-001  -7.485343e-001 
1785000000  5.857450e-001  -7.582988e-001 
1790000000  5.731777e-001  -7.678598e-001 
1795000000  5.601997e-001  -7.771494e-001 
1800000000  5.470372e-001  -7.862042e-001 
1805000000  5.339338e-001  -7.949895e-001 
1810000000  5.204502e-001  -8.037019e-001 
1815000000  5.074311e-001  -8.120105e-001 
1820000000  4.930600e-001  -8.208728e-001 
1825000000  4.789271e-001  -8.288424e-001 
1830000000  4.647414e-001  -8.365049e-001 
1835000000  4.503730e-001  -8.440499e-001 
1840000000  4.357160e-001  -8.514283e-001 
1845000000  4.205034e-001  -8.590407e-001 
1850000000  4.055028e-001  -8.657483e-001 
1855000000  3.910611e-001  -8.720534e-001 
1860000000  3.756664e-001  -8.783059e-001 
1865000000  3.602225e-001  -8.846721e-001 
1870000000  3.444580e-001  -8.901470e-001 
1875000000  3.286676e-001  -8.962047e-001 
1880000000  3.126367e-001  -9.014347e-001 
1885000000  2.963424e-001  -9.064385e-001 
1890000000  2.800186e-001  -9.113981e-001 
1895000000  2.634143e-001  -9.159517e-001 
1900000000  2.466493e-001  -9.201652e-001 
1905000000  2.297117e-001  -9.241188e-001 
1910000000  2.127746e-001  -9.276457e-001 
1915000000  1.955345e-001  -9.309956e-001 
1920000000  1.782657e-001  -9.339223e-001 
1925000000  1.609547e-001  -9.363877e-001 
1930000000  1.442505e-001  -9.387655e-001 
1935000000  1.259557e-001  -9.408243e-001 
1940000000  1.084613e-001  -9.425122e-001 
1945000000  9.058247e-002  -9.438394e-001 
1950000000  7.296591e-002  -9.447038e-001 
1955000000  5.568773e-002  -9.452605e-001 
1960000000  3.732313e-002  -9.451805e-001 
1965000000  1.922287e-002  -9.451044e-001 
1970000000  1.654829e-003  -9.444315e-001 
1975000000  -1.627610e-002  -9.434439e-001 
1980000000  -3.405687e-002  -9.424144e-001 
1985000000  -5.197500e-002  -9.408104e-001 
1990000000  -7.001197e-002  -9.387045e-001 
1995000000  -8.855885e-002  -9.365597e-001 
2000000000  -1.056929e-001  -9.335650e-001 
2005000000  -1.236770e-001  -9.303898e-001 
2010000000  -1.413235e-001  -9.268302e-001 
2015000000  -1.590162e-001  -9.229197e-001 
2020000000  -1.765941e-001  -9.185991e-001 
2025000000  -1.938597e-001  -9.139747e-001 
2030000000  -2.112680e-001  -9.086670e-001 
2035000000  -2.284419e-001  -9.033601e-001 
2040000000  -2.453256e-001  -8.973774e-001 
2045000000  -2.622205e-001  -8.913101e-001 
2050000000  -2.788948e-001  -8.849567e-001 
2055000000  -2.955461e-001  -8.782188e-001 
2060000000  -3.117547e-001  -8.708749e-001 
2065000000  -3.279366e-001  -8.634921e-001 
2070000000  -3.439372e-001  -8.560528e-001 
2075000000  -3.597427e-001  -8.483225e-001 
2080000000  -3.757833e-001  -8.402068e-001 
2085000000  -3.916120e-001  -8.318518e-001 
2090000000  -4.074703e-001  -8.233184e-001 
2095000000  -4.230592e-001  -8.140420e-001 
2100000000  -4.384620e-001  -8.044046e-001 
2105000000  -4.534885e-001  -7.946875e-001 
2110000000  -4.682311e-001  -7.852910e-001 
2115000000  -4.834781e-001  -7.745699e-001 
2120000000  -4.980657e-001  -7.639149e-001 
2125000000  -5.124599e-001  -7.529910e-001 
2130000000  -5.266541e-001  -7.420270e-001 
2135000000  -5.404376e-001  -7.304919e-001 
2140000000  -5.542959e-001  -7.189569e-001 
2145000000  -5.679966e-001  -7.070445e-001 
2150000000  -5.815241e-001  -6.950733e-001 
2155000000  -5.948772e-001  -6.823957e-001 
2160000000  -6.075987e-001  -6.694874e-001 
2165000000  -6.213394e-001  -6.563722e-001 
2170000000  -6.340668e-001  -6.425927e-001 
2175000000  -6.463248e-001  -6.285805e-001 
2180000000  -6.582373e-001  -6.142316e-001 
2185000000  -6.698829e-001  -6.005853e-001 
2190000000  -6.814952e-001  -5.853257e-001 
2195000000  -6.929840e-001  -5.703904e-001 
2200000000  -7.038549e-001  -5.549570e-001 
2205000000  -7.142227e-001  -5.390380e-001 
2210000000  -7.240259e-001  -5.234250e-001 
2215000000  -7.338730e-001  -5.073090e-001 
2220000000  -7.429391e-001  -4.908861e-001 
2225000000  -7.515014e-001  -4.745241e-001 
2230000000  -7.597813e-001  -4.582174e-001 
2235000000  -7.677399e-001  -4.416534e-001 
2240000000  -7.752334e-001  -4.245513e-001 
2245000000  -7.818319e-001  -4.074593e-001 
2250000000  -7.879158e-001  -3.907932e-001 
2255000000  -7.941020e-001  -3.743975e-001 
2260000000  -8.000664e-001  -3.576024e-001 
2265000000  -8.054590e-001  -3.404515e-001 
2270000000  -8.105661e-001  -3.234954e-001 
2275000000  -8.152258e-001  -3.064443e-001 
2280000000  -8.193476e-001  -2.894519e-001 
2285000000  -8.228063e-001  -2.726695e-001 
2290000000  -8.260635e-001  -2.562252e-001 
2295000000  -8.296963e-001  -2.395814e-001 
2300000000  -8.331540e-001  -2.232737e-001 
2305000000  -8.362681e-001  -2.072672e-001 
2310000000  -8.387871e-001  -1.905846e-001 
2315000000  -8.411633e-001  -1.740817e-001 
2320000000  -8.431287e-001  -1.575729e-001 
2325000000  -8.455425e-001  -1.410120e-001 
2330000000  -8.471230e-001  -1.241324e-001 
2335000000  -8.482817e-001  -1.068880e-001 
2340000000  -8.486493e-001  -8.989871e-002 
2345000000  -8.486296e-001  -7.324541e-002 
2350000000  -8.483132e-001  -5.689342e-002 
2355000000  -8.480660e-001  -4.090158e-002 
2360000000  -8.479528e-001  -2.486122e-002 
2365000000  -8.475074e-001  -8.837138e-003 
2370000000  -8.468381e-001  7.724032e-003 
2375000000  -8.462518e-001  2.357038e-002 
2380000000  -8.456396e-001  4.031293e-002 
2385000000  -8.445058e-001  5.681614e-002 
2390000000  -8.432015e-001  7.337252e-002 
2395000000  -8.412897e-001  8.995559e-002 
2400000000  -8.392639e-001  1.067895e-001 
2405000000  -8.364972e-001  1.234878e-001 
2410000000  -8.338529e-001  1.397626e-001 
2415000000  -8.310602e-001  1.563845e-001 
2420000000  -8.275199e-001  1.732421e-001 
2425000000  -8.237808e-001  1.896590e-001 
2430000000  -8.195558e-001  2.064421e-001 
2435000000  -8.152002e-001  2.226947e-001 
2440000000  -8.103809e-001  2.389493e-001 
2445000000  -8.050900e-001  2.547825e-001 
2450000000  -8.001415e-001  2.708523e-001 
2455000000  -7.946835e-001  2.869684e-001 
2460000000  -7.887908e-001  3.030899e-001 
2465000000  -7.824414e-001  3.188637e-001 
2470000000  -7.757297e-001  3.340409e-001 
2475000000  -7.688965e-001  3.497635e-001 
2480000000  -7.616430e-001  3.654498e-001 
2485000000  -7.542402e-001  3.809222e-001 
2490000000  -7.464269e-001  3.959587e-001 
2495000000  -7.382492e-001  4.106378e-001 
2500000000  -7.292001e-001  4.262764e-001 
2505000000  -7.194517e-001  4.406232e-001 
2510000000  -7.101111e-001  4.542608e-001 
2515000000  -7.004216e-001  4.677064e-001 
2520000000  -6.909091e-001  4.807386e-001 
2525000000  -6.805647e-001  4.936951e-001 
2530000000  -6.699094e-001  5.061517e-001 
2535000000  -6.594366e-001  5.175035e-001 
2540000000  -6.483141e-001  5.303208e-001 
2545000000  -6.370493e-001  5.423553e-001 
2550000000  -6.251005e-001  5.536982e-001 
2555000000  -6.139840e-001  5.630254e-001 
2560000000  -6.033454e-001  5.727578e-001 
2565000000  -5.923301e-001  5.826896e-001 
2570000000  -5.819054e-001  5.921775e-001 
2575000000  -5.715693e-001  6.016228e-001 
2580000000  -5.613352e-001  6.114987e-001 
2585000000  -5.505461e-001  6.211330e-001 
2590000000  -5.394398e-001  6.303494e-001 
2595000000  -5.281144e-001  6.387455e-001 
2600000000  -5.172238e-001  6.470076e-001 
2605000000  -5.068066e-001  6.549481e-001 
2610000000  -4.986024e-001  6.632157e-001 
2615000000  -4.888986e-001  6.729934e-001 
2620000000  -4.779691e-001  6.822018e-001 
2625000000  -4.670788e-001  6.909259e-001 
2630000000  -4.568016e-001  6.990346e-001 
2635000000  -4.472663e-001  7.081123e-001 
2640000000  -4.373422e-001  7.181029e-001 
2645000000  -4.265901e-001  7.282578e-001 
2650000000  -4.146213e-001  7.386308e-001 
2655000000  -4.023810e-001  7.481300e-001 
2660000000  -3.891003e-001  7.577136e-001 
2665000000  -3.752860e-001  7.660002e-001 
2670000000  -3.621664e-001  7.736211e-001 
2675000000  -3.485621e-001  7.819722e-001 
2680000000  -3.353073e-001  7.887297e-001 
2685000000  -3.220269e-001  7.952137e-001 
2690000000  -3.086330e-001  8.014969e-001 
2695000000  -2.955203e-001  8.075709e-001 
2700000000  -2.822542e-001  8.141107e-001 
2705000000  -2.685143e-001  8.210037e-001 
2710000000  -2.544922e-001  8.265626e-001 
2715000000  -2.402675e-001  8.322871e-001 
2720000000  -2.259502e-001  8.376092e-001 
2725000000  -2.109774e-001  8.422134e-001 
2730000000  -1.964613e-001  8.461132e-001 
2735000000  -1.821735e-001  8.494367e-001 
2740000000  -1.688174e-001  8.526430e-001 
2745000000  -1.570644e-001  8.549742e-001 
2750000000  -1.437857e-001  8.596615e-001 
2755000000  -1.292561e-001  8.643543e-001 
2760000000  -1.154083e-001  8.677976e-001 
2765000000  -1.000138e-001  8.717114e-001 
2770000000  -8.488944e-002  8.741689e-001 
2775000000  -7.096721e-002  8.762327e-001 
2780000000  -5.691895e-002  8.785952e-001 
2785000000  -4.320821e-002  8.804187e-001 
2790000000  -3.030351e-002  8.827839e-001 
2795000000  -1.900276e-002  8.851516e-001 
2800000000  -5.654216e-003  8.881598e-001 
2805000000  8.332922e-003  8.924580e-001 
2810000000  2.341843e-002  8.965297e-001 
2815000000  3.899796e-002  9.002645e-001 
2820000000  5.544428e-002  9.035770e-001 
2825000000  7.189577e-002  9.064789e-001 
2830000000  8.740762e-002  9.093535e-001 
2835000000  1.053143e-001  9.122272e-001 
2840000000  1.232496e-001  9.136497e-001 
2845000000  1.389713e-001  9.149029e-001 
2850000000  1.570768e-001  9.148779e-001 
2855000000  1.758040e-001  9.147986e-001 
2860000000  1.931918e-001  9.141214e-001 
2865000000  2.104353e-001  9.133820e-001 
2870000000  2.282667e-001  9.114006e-001 
2875000000  2.458581e-001  9.095672e-001 
2880000000  2.637286e-001  9.070966e-001 
2885000000  2.798681e-001  9.041836e-001 
2890000000  2.965203e-001  9.013721e-001 
2895000000  3.123623e-001  8.972380e-001 
2900000000  3.291025e-001  8.927638e-001 
2905000000  3.446738e-001  8.887153e-001 
2910000000  3.596503e-001  8.847772e-001 
2915000000  3.742063e-001  8.816682e-001 
2920000000  3.896373e-001  8.776651e-001 
2925000000  4.048573e-001  8.735006e-001 
2930000000  4.209460e-001  8.678249e-001 
2935000000  4.359100e-001  8.629328e-001 
2940000000  4.510414e-001  8.581916e-001 
2945000000  4.667441e-001  8.522354e-001 
2950000000  4.818361e-001  8.468280e-001 
2955000000  4.972520e-001  8.415989e-001 
2960000000  5.134937e-001  8.347996e-001 
2965000000  5.283504e-001  8.271420e-001 
2970000000  5.414277e-001  8.227006e-001 
2975000000  5.562161e-001  8.196299e-001 
2980000000  5.734292e-001  8.130171e-001 
2985000000  5.911995e-001  8.073704e-001 
2990000000  6.096027e-001  7.986391e-001 
2995000000  6.280157e-001  7.861844e-001 
3000000000  6.433667e-001  7.740250e-001 
3005000000  6.582118e-001  7.630956e-001 
3010000000  6.729742e-001  7.521185e-001 
3015000000  6.871011e-001  7.398883e-001 
3020000000  7.001256e-001  7.285498e-001 
3025000000  7.124807e-001  7.180108e-001 
3030000000  7.252995e-001  7.078281e-001 
3035000000  7.387092e-001  6.990535e-001 
3040000000  7.521532e-001  6.873015e-001 
3045000000  7.654358e-001  6.757728e-001 
3050000000  7.797194e-001  6.641274e-001 
3055000000  7.937719e-001  6.525128e-001 
3060000000  8.084692e-001  6.401529e-001 
3065000000  8.228272e-001  6.273156e-001 
3070000000  8.361633e-001  6.144022e-001 
3075000000  8.501056e-001  6.004938e-001 
3080000000  8.639707e-001  5.880915e-001 
3085000000  8.754247e-001  5.719128e-001 
3090000000  8.863910e-001  5.568765e-001 
3095000000  8.940707e-001  5.379834e-001 
3100000000  9.034077e-001  5.241598e-001 
3105000000  9.161595e-001  5.103332e-001 
3110000000  9.311647e-001  4.954608e-001 
3115000000  9.463211e-001  4.810004e-001 
3120000000  9.569384e-001  4.635511e-001 
3125000000  9.674292e-001  4.461340e-001 
3130000000  9.751210e-001  4.255567e-001 
3135000000  9.820356e-001  4.051383e-001 
3140000000  9.847989e-001  3.840754e-001 
3145000000  9.919385e-001  3.660093e-001 
3150000000  9.980075e-001  3.453071e-001 
3155000000  1.004879e+000  3.246270e-001 
3160000000  1.012473e+000  3.050505e-001 
3165000000  1.015695e+000  2.853487e-001 
3170000000  1.021425e+000  2.655825e-001 
3175000000  1.024015e+000  2.457726e-001 
3180000000  1.024890e+000  2.259683e-001 
3185000000  1.024052e+000  2.072254e-001 
3190000000  1.022134e+000  1.890273e-001 
3195000000  1.021258e+000  1.720845e-001 
3200000000  1.020702e+000  1.528865e-001 
3205000000  1.019544e+000  1.334803e-001 
3210000000  1.016783e+000  1.129344e-001 
3215000000  1.004044e+000  9.748023e-002 
3220000000  9.974200e-001  8.015693e-002 
3225000000  9.922501e-001  6.215593e-002 
3230000000  9.895100e-001  4.448747e-002 
3235000000  9.881345e-001  2.649587e-002 
3240000000  9.840547e-001  1.051087e-002 
3245000000  9.792685e-001  -5.728481e-003 
3250000000  9.712686e-001  -2.294000e-002 
3255000000  9.637282e-001  -3.950448e-002 
3260000000  9.555727e-001  -5.544709e-002 
3265000000  9.469771e-001  -6.927418e-002 
3270000000  9.387447e-001  -8.227685e-002 
3275000000  9.319348e-001  -9.413658e-002 
3280000000  9.260074e-001  -1.073573e-001 
3285000000  9.185297e-001  -1.207956e-001 
3290000000  9.106742e-001  -1.330861e-001 
3295000000  9.030420e-001  -1.461052e-001 
3300000000  8.949165e-001  -1.582621e-001 
3305000000  8.864793e-001  -1.671640e-001 
3310000000  8.784944e-001  -1.755334e-001 
3315000000  8.720914e-001  -1.839528e-001 
3320000000  8.664876e-001  -1.922122e-001 
3325000000  8.619819e-001  -2.015354e-001 
3330000000  8.566960e-001  -2.118944e-001 
3335000000  8.508015e-001  -2.213649e-001 
3340000000  8.446109e-001  -2.306829e-001 
3345000000  8.387446e-001  -2.396475e-001 
3350000000  8.334403e-001  -2.475281e-001 
3355000000  8.285130e-001  -2.558933e-001 
3360000000  8.238781e-001  -2.652076e-001 
3365000000  8.182244e-001  -2.746359e-001 
3370000000  8.121203e-001  -2.835459e-001 
3375000000  8.056996e-001  -2.920772e-001 
3380000000  7.999375e-001  -2.998673e-001 
3385000000  7.934532e-001  -3.081934e-001 
3390000000  7.867707e-001  -3.158235e-001 
3395000000  7.801805e-001  -3.237072e-001 
3400000000  7.728239e-001  -3.326729e-001 
3405000000  7.664018e-001  -3.387067e-001 
3410000000  7.587764e-001  -3.455223e-001 
3415000000  7.513836e-001  -3.512608e-001 
3420000000  7.442169e-001  -3.566119e-001 
3425000000  7.382166e-001  -3.620552e-001 
3430000000  7.318051e-001  -3.682417e-001 
3435000000  7.249004e-001  -3.743022e-001 
3440000000  7.176079e-001  -3.791160e-001 
3445000000  7.109165e-001  -3.843735e-001 
3450000000  7.046108e-001  -3.898399e-001 
3455000000  6.978942e-001  -3.948593e-001 
3460000000  6.917014e-001  -4.001868e-001 
3465000000  6.847410e-001  -4.057027e-001 
3470000000  6.775686e-001  -4.107526e-001 
3475000000  6.704026e-001  -4.152436e-001 
3480000000  6.641740e-001  -4.194540e-001 
3485000000  6.583113e-001  -4.238730e-001 
3490000000  6.528301e-001  -4.286588e-001 
3495000000  6.471659e-001  -4.344746e-001 
3500000000  6.407622e-001  -4.401112e-001 
3505000000  6.346593e-001  -4.452810e-001 
3510000000  6.287294e-001  -4.513262e-001 
3515000000  6.222549e-001  -4.569242e-001 
3520000000  6.161845e-001  -4.621976e-001 
3525000000  6.098986e-001  -4.687991e-001 
3530000000  6.030189e-001  -4.747584e-001 
3535000000  5.965238e-001  -4.804322e-001 
3540000000  5.896820e-001  -4.864385e-001 
3545000000  5.822912e-001  -4.921092e-001 
3550000000  5.758143e-001  -4.965894e-001 
3555000000  5.687485e-001  -5.014923e-001 
3560000000  5.624405e-001  -5.063302e-001 
3565000000  5.557529e-001  -5.107611e-001 
3570000000  5.500430e-001  -5.151657e-001 
3575000000  5.437466e-001  -5.195203e-001 
3580000000  5.383684e-001  -5.240383e-001 
3585000000  5.328766e-001  -5.292586e-001 
3590000000  5.268868e-001  -5.342528e-001 
3595000000  5.210989e-001  -5.391381e-001 
3600000000  5.155886e-001  -5.443078e-001 
3605000000  5.091316e-001  -5.495036e-001 
3610000000  5.025562e-001  -5.540726e-001 
3615000000  4.962963e-001  -5.590991e-001 
3620000000  4.894890e-001  -5.639825e-001 
3625000000  4.831557e-001  -5.678855e-001 
3630000000  4.776079e-001  -5.721861e-001 
3635000000  4.711733e-001  -5.777802e-001 
3640000000  4.632903e-001  -5.823432e-001 
3645000000  4.560515e-001  -5.861074e-001 
3650000000  4.493614e-001  -5.896963e-001 
3655000000  4.422815e-001  -5.935621e-001 
3660000000  4.352731e-001  -5.976220e-001 
3665000000  4.286153e-001  -6.012935e-001 
3670000000  4.215001e-001  -6.053115e-001 
3675000000  4.145795e-001  -6.091586e-001 
3680000000  4.067561e-001  -6.135401e-001 
3685000000  3.986829e-001  -6.176512e-001 
3690000000  3.913797e-001  -6.211703e-001 
3695000000  3.832809e-001  -6.253790e-001 
3700000000  3.752855e-001  -6.292830e-001 
3705000000  3.674738e-001  -6.339046e-001 
3710000000  3.586474e-001  -6.391418e-001 
3715000000  3.494762e-001  -6.439139e-001 
3720000000  3.406617e-001  -6.476479e-001 
3725000000  3.311749e-001  -6.524923e-001 
3730000000  3.213728e-001  -6.572126e-001 
3735000000  3.112976e-001  -6.623529e-001 
3740000000  3.004060e-001  -6.673550e-001 
3745000000  2.888890e-001  -6.726514e-001 
3750000000  2.761501e-001  -6.769551e-001 
3755000000  2.636037e-001  -6.804798e-001 
3760000000  2.511609e-001  -6.835707e-001 
3765000000  2.382205e-001  -6.869316e-001 
3770000000  2.264198e-001  -6.897454e-001 
3775000000  2.138816e-001  -6.931853e-001 
3780000000  2.000492e-001  -6.969963e-001 
3785000000  1.857369e-001  -6.998026e-001 
3790000000  1.713904e-001  -7.016697e-001 
3795000000  1.563969e-001  -7.038366e-001 
3800000000  1.415029e-001  -7.048010e-001 
3805000000  1.267868e-001  -7.058537e-001 
3810000000  1.117247e-001  -7.069200e-001 
3815000000  9.674796e-002  -7.075528e-001 
3820000000  8.041030e-002  -7.083968e-001 
3825000000  6.379929e-002  -7.086553e-001 
3830000000  4.591380e-002  -7.081509e-001 
3835000000  2.678918e-002  -7.070362e-001 
3840000000  9.311799e-003  -7.037282e-001 
3845000000  -9.636967e-003  -7.006553e-001 
3850000000  -2.835505e-002  -6.970686e-001 
3855000000  -4.783314e-002  -6.925390e-001 
3860000000  -6.819279e-002  -6.878834e-001 
3865000000  -8.944570e-002  -6.817930e-001 
3870000000  -1.107383e-001  -6.735606e-001 
3875000000  -1.329144e-001  -6.636012e-001 
3880000000  -1.544931e-001  -6.530554e-001 
3885000000  -1.764560e-001  -6.406071e-001 
3890000000  -1.989709e-001  -6.269156e-001 
3895000000  -2.206036e-001  -6.116329e-001 
3900000000  -2.439062e-001  -5.940104e-001 
3905000000  -2.657996e-001  -5.734019e-001 
3910000000  -2.864790e-001  -5.509781e-001 
3915000000  -3.071806e-001  -5.266417e-001 
3920000000  -3.257434e-001  -4.997147e-001 
3925000000  -3.432102e-001  -4.711255e-001 
3930000000  -3.586707e-001  -4.401478e-001 
3935000000  -3.718320e-001  -4.080063e-001 
3940000000  -3.847495e-001  -3.740285e-001 
3945000000  -3.938763e-001  -3.373268e-001 
3950000000  -4.002738e-001  -2.994018e-001 
3955000000  -4.034341e-001  -2.598578e-001 
3960000000  -4.024331e-001  -2.191165e-001 
3965000000  -3.978031e-001  -1.784957e-001 
3970000000  -3.885687e-001  -1.381367e-001 
3975000000  -3.755549e-001  -9.886447e-002 
3980000000  -3.597713e-001  -6.114034e-002 
3985000000  -3.400318e-001  -2.400179e-002 
3990000000  -3.163803e-001  1.046369e-002 
3995000000  -2.894922e-001  4.217265e-002 
4000000000  -2.608341e-001  7.042699e-002 
4005000000  -2.305102e-001  9.578677e-002 
4010000000  -1.987416e-001  1.192233e-001 
4015000000  -1.645665e-001  1.397534e-001 
4020000000  -1.294114e-001  1.565070e-001 
4025000000  -9.294493e-002  1.699022e-001 
4030000000  -5.671210e-002  1.788269e-001 
4035000000  -2.123785e-002  1.857022e-001 
4040000000  1.455466e-002  1.895677e-001 
4045000000  4.923575e-002  1.894071e-001 
4050000000  8.221425e-002  1.880642e-001 
4055000000  1.151938e-001  1.838313e-001 
4060000000  1.463152e-001  1.765875e-001 
4065000000  1.750176e-001  1.678139e-001 
4070000000  2.019009e-001  1.581921e-001 
4075000000  2.278377e-001  1.471920e-001 
4080000000  2.513794e-001  1.351546e-001 
4085000000  2.740783e-001  1.228520e-001 
4090000000  2.957811e-001  1.093313e-001 
4095000000  3.156326e-001  9.570534e-002 
4100000000  3.353222e-001  8.072817e-002 
4105000000  3.526746e-001  6.488138e-002 
4110000000  3.685746e-001  4.953104e-002 
4115000000  3.840221e-001  3.334189e-002 
4120000000  3.984629e-001  1.790902e-002 
4125000000  4.128926e-001  1.219407e-003 
4130000000  4.262145e-001  -1.731626e-002 
4135000000  4.367414e-001  -3.636295e-002 
4140000000  4.461122e-001  -5.517941e-002 
4145000000  4.543307e-001  -7.411178e-002 
4150000000  4.613000e-001  -9.421924e-002 
4155000000  4.662412e-001  -1.139726e-001 
4160000000  4.688185e-001  -1.332948e-001 
4165000000  4.698718e-001  -1.507215e-001 
4170000000  4.713490e-001  -1.669334e-001 
4175000000  4.729892e-001  -1.829794e-001 
4180000000  4.737709e-001  -1.995017e-001 
4185000000  4.737165e-001  -2.153494e-001 
4190000000  4.734999e-001  -2.308436e-001 
4195000000  4.725907e-001  -2.467802e-001 
4200000000  4.710950e-001  -2.616711e-001 
4205000000  4.691641e-001  -2.762515e-001 
4210000000  4.661653e-001  -2.906677e-001 
4215000000  4.630657e-001  -3.045565e-001 
4220000000  4.592361e-001  -3.178558e-001 
4225000000  4.546541e-001  -3.294757e-001 
4230000000  4.506451e-001  -3.407308e-001 
4235000000  4.462247e-001  -3.511878e-001 
4240000000  4.435667e-001  -3.605179e-001 
4245000000  4.407145e-001  -3.703383e-001 
4250000000  4.380237e-001  -3.806282e-001 
4255000000  4.346579e-001  -3.898838e-001 
4260000000  4.320981e-001  -3.993445e-001 
4265000000  4.307153e-001  -4.085291e-001 
4270000000  4.289433e-001  -4.196860e-001 
4275000000  4.248730e-001  -4.310493e-001 
4280000000  4.207153e-001  -4.411908e-001 
4285000000  4.154964e-001  -4.510900e-001 
4290000000  4.109355e-001  -4.595383e-001 
4295000000  4.058788e-001  -4.677514e-001 
4300000000  4.016352e-001  -4.751484e-001 
4305000000  3.969387e-001  -4.827133e-001 
4310000000  3.918164e-001  -4.893380e-001 
4315000000  3.883809e-001  -4.952505e-001 
4320000000  3.847060e-001  -5.022994e-001 
4325000000  3.817012e-001  -5.088685e-001 
4330000000  3.778549e-001  -5.165049e-001 
4335000000  3.744095e-001  -5.239316e-001 
4340000000  3.700128e-001  -5.321955e-001 
4345000000  3.651766e-001  -5.400638e-001 
4350000000  3.598783e-001  -5.478489e-001 
4355000000  3.547518e-001  -5.543051e-001 
4360000000  3.490369e-001  -5.613956e-001 
4365000000  3.442136e-001  -5.686917e-001 
4370000000  3.383679e-001  -5.765517e-001 
4375000000  3.314941e-001  -5.841545e-001 
4380000000  3.246469e-001  -5.912350e-001 
4385000000  3.182004e-001  -5.978616e-001 
4390000000  3.107705e-001  -6.044415e-001 
4395000000  3.040852e-001  -6.106105e-001 
4400000000  2.979167e-001  -6.171461e-001 
4405000000  2.912847e-001  -6.251365e-001 
4410000000  2.843826e-001  -6.325454e-001 
4415000000  2.753926e-001  -6.402585e-001 
4420000000  2.675142e-001  -6.469234e-001 
4425000000  2.590445e-001  -6.545473e-001 
4430000000  2.495491e-001  -6.619113e-001 
4435000000  2.405396e-001  -6.686172e-001 
4440000000  2.316091e-001  -6.754516e-001 
4445000000  2.217606e-001  -6.818608e-001 
4450000000  2.117739e-001  -6.885714e-001 
4455000000  2.008450e-001  -6.947842e-001 
4460000000  1.910763e-001  -6.997968e-001 
4465000000  1.810679e-001  -7.052005e-001 
4470000000  1.718768e-001  -7.098874e-001 
4475000000  1.617512e-001  -7.152157e-001 
4480000000  1.523331e-001  -7.199758e-001 
4485000000  1.422807e-001  -7.248121e-001 
4490000000  1.317952e-001  -7.293055e-001 
4495000000  1.216045e-001  -7.337009e-001 
4500000000  1.129016e-001  -7.377210e-001 
4505000000  1.024952e-001  -7.413061e-001 
4510000000  9.186395e-002  -7.445629e-001 
4515000000  8.250897e-002  -7.466702e-001 
4520000000  7.353073e-002  -7.491239e-001 
4525000000  6.421079e-002  -7.512634e-001 
4530000000  5.596285e-002  -7.535327e-001 
4535000000  4.783173e-002  -7.559609e-001 
4540000000  3.929250e-002  -7.580400e-001 
4545000000  3.138647e-002  -7.602081e-001 
4550000000  2.368452e-002  -7.625023e-001 
4555000000  1.523168e-002  -7.648810e-001 
4560000000  8.080202e-003  -7.676516e-001 
4565000000  -3.436830e-004  -7.703549e-001 
4570000000  -8.991283e-003  -7.730589e-001 
4575000000  -1.732339e-002  -7.758346e-001 
4580000000  -2.679708e-002  -7.784212e-001 
4585000000  -3.675166e-002  -7.801672e-001 
4590000000  -4.608454e-002  -7.810714e-001 
4595000000  -5.631317e-002  -7.824630e-001 
4600000000  -6.614918e-002  -7.836050e-001 
4605000000  -7.501286e-002  -7.842172e-001 
4610000000  -8.555051e-002  -7.846882e-001 
4615000000  -9.505657e-002  -7.850176e-001 
4620000000  -1.051945e-001  -7.854910e-001 
4625000000  -1.152854e-001  -7.859104e-001 
4630000000  -1.260582e-001  -7.864605e-001 
4635000000  -1.365825e-001  -7.867755e-001 
4640000000  -1.484427e-001  -7.866371e-001 
4645000000  -1.593932e-001  -7.867264e-001 
4650000000  -1.709560e-001  -7.860166e-001 
4655000000  -1.841933e-001  -7.847707e-001 
4660000000  -1.954472e-001  -7.831045e-001 
4665000000  -2.072399e-001  -7.815980e-001 
4670000000  -2.196155e-001  -7.803458e-001 
4675000000  -2.315936e-001  -7.782670e-001 
4680000000  -2.451676e-001  -7.762319e-001 
4685000000  -2.588806e-001  -7.734014e-001 
4690000000  -2.710302e-001  -7.700474e-001 
4695000000  -2.839331e-001  -7.668514e-001 
4700000000  -2.973610e-001  -7.631805e-001 
4705000000  -3.086776e-001  -7.596729e-001 
4710000000  -3.218486e-001  -7.560084e-001 
4715000000  -3.351719e-001  -7.521926e-001 
4720000000  -3.477632e-001  -7.486023e-001 
4725000000  -3.608110e-001  -7.444470e-001 
4730000000  -3.737597e-001  -7.401289e-001 
4735000000  -3.874907e-001  -7.351664e-001 
4740000000  -4.022086e-001  -7.294550e-001 
4745000000  -4.153721e-001  -7.237202e-001 
4750000000  -4.278924e-001  -7.174640e-001 
4755000000  -4.422479e-001  -7.109730e-001 
4760000000  -4.549287e-001  -7.042598e-001 
4765000000  -4.680491e-001  -6.969649e-001 
4770000000  -4.815384e-001  -6.892978e-001 
4775000000  -4.935572e-001  -6.820664e-001 
4780000000  -5.071018e-001  -6.736466e-001 
4785000000  -5.198038e-001  -6.649482e-001 
4790000000  -5.318819e-001  -6.563798e-001 
4795000000  -5.455999e-001  -6.465029e-001 
4800000000  -5.578197e-001  -6.369685e-001 
4805000000  -5.702862e-001  -6.264993e-001 
4810000000  -5.821395e-001  -6.156703e-001 
4815000000  -5.942461e-001  -6.041898e-001 
4820000000  -6.052265e-001  -5.930611e-001 
4825000000  -6.162778e-001  -5.816917e-001 
4830000000  -6.278831e-001  -5.693584e-001 
4835000000  -6.385814e-001  -5.568284e-001 
4840000000  -6.489829e-001  -5.440396e-001 
4845000000  -6.592565e-001  -5.309575e-001 
4850000000  -6.693897e-001  -5.178222e-001 
4855000000  -6.788834e-001  -5.040925e-001 
4860000000  -6.882312e-001  -4.902122e-001 
4865000000  -6.980706e-001  -4.758324e-001 
4870000000  -7.070808e-001  -4.608940e-001 
4875000000  -7.154100e-001  -4.456769e-001 
4880000000  -7.232736e-001  -4.306556e-001 
4885000000  -7.318304e-001  -4.137536e-001 
4890000000  -7.385761e-001  -3.985498e-001 
4895000000  -7.448305e-001  -3.826950e-001 
4900000000  -7.517638e-001  -3.660297e-001 
4905000000  -7.578459e-001  -3.492906e-001 
4910000000  -7.636794e-001  -3.328398e-001 
4915000000  -7.692204e-001  -3.152231e-001 
4920000000  -7.741124e-001  -2.978804e-001 
4925000000  -7.784016e-001  -2.807432e-001 
4930000000  -7.823941e-001  -2.629507e-001 
4935000000  -7.858539e-001  -2.448861e-001 
4940000000  -7.889386e-001  -2.257956e-001 
4945000000  -7.911102e-001  -2.076763e-001 
4950000000  -7.923420e-001  -1.892858e-001 
4955000000  -7.935745e-001  -1.698318e-001 
4960000000  -7.937576e-001  -1.513760e-001 
4965000000  -7.937171e-001  -1.318506e-001 
4970000000  -7.929607e-001  -1.123662e-001 
4975000000  -7.920881e-001  -9.345356e-002 
4980000000  -7.905787e-001  -7.373896e-002 
4985000000  -7.882434e-001  -5.296604e-002 
4990000000  -7.852482e-001  -3.279289e-002 
4995000000  -7.806996e-001  -1.277428e-002 
5000000000  -7.761707e-001  7.683387e-003 
5005000000  -7.710782e-001  2.777096e-002 
5010000000  -7.649623e-001  4.801927e-002 
5015000000  -7.584180e-001  6.835280e-002 
5020000000  -7.510205e-001  8.889919e-002 
5025000000  -7.428678e-001  1.091820e-001 
5030000000  -7.341869e-001  1.292524e-001 
5035000000  -7.246680e-001  1.494783e-001 
5040000000  -7.144250e-001  1.694925e-001 
5045000000  -7.037003e-001  1.885972e-001 
5050000000  -6.923872e-001  2.080416e-001 
5055000000  -6.807097e-001  2.275383e-001 
5060000000  -6.677906e-001  2.470452e-001 
5065000000  -6.545549e-001  2.653866e-001 
5070000000  -6.404188e-001  2.838814e-001 
5075000000  -6.258026e-001  3.020338e-001 
5080000000  -6.101097e-001  3.187634e-001 
5085000000  -5.936977e-001  3.354828e-001 
5090000000  -5.770864e-001  3.504519e-001 
5095000000  -5.607072e-001  3.653876e-001 
5100000000  -5.435425e-001  3.798245e-001 
5105000000  -5.259524e-001  3.928804e-001 
5110000000  -5.079724e-001  4.058902e-001 
5115000000  -4.902451e-001  4.174941e-001 
5120000000  -4.721575e-001  4.289863e-001 
5125000000  -4.535663e-001  4.393299e-001 
5130000000  -4.353297e-001  4.486957e-001 
5135000000  -4.165923e-001  4.575133e-001 
5140000000  -3.979328e-001  4.666907e-001 
5145000000  -3.783679e-001  4.752800e-001 
5150000000  -3.573036e-001  4.818987e-001 
5155000000  -3.365989e-001  4.863735e-001 
5160000000  -3.170927e-001  4.896922e-001 
5165000000  -2.982582e-001  4.923644e-001 
5170000000  -2.790883e-001  4.951669e-001 
5175000000  -2.600171e-001  4.971741e-001 
5180000000  -2.414553e-001  4.982595e-001 
5185000000  -2.227681e-001  4.989653e-001 
5190000000  -2.044609e-001  4.992198e-001 
5195000000  -1.865404e-001  4.991020e-001 
5200000000  -1.678111e-001  4.988083e-001 
5205000000  -1.489739e-001  4.968709e-001 
5210000000  -1.316755e-001  4.946925e-001 
5215000000  -1.139542e-001  4.927194e-001 
5220000000  -9.621447e-002  4.902900e-001 
5225000000  -7.920779e-002  4.872669e-001 
5230000000  -6.194164e-002  4.845454e-001 
5235000000  -4.496022e-002  4.813176e-001 
5240000000  -2.758508e-002  4.776279e-001 
5245000000  -1.036394e-002  4.736439e-001 
5250000000  5.942366e-003  4.691188e-001 
5255000000  2.207970e-002  4.646611e-001 
5260000000  3.824753e-002  4.608122e-001 
5265000000  5.480955e-002  4.569453e-001 
5270000000  7.222986e-002  4.522060e-001 
5275000000  8.866723e-002  4.466104e-001 
5280000000  1.045471e-001  4.409878e-001 
5285000000  1.204324e-001  4.355952e-001 
5290000000  1.367317e-001  4.307230e-001 
5295000000  1.541456e-001  4.250276e-001 
5300000000  1.714275e-001  4.176473e-001 
5305000000  1.877436e-001  4.096511e-001 
5310000000  2.039945e-001  4.009836e-001 
5315000000  2.193842e-001  3.910384e-001 
5320000000  2.332427e-001  3.811608e-001 
5325000000  2.466238e-001  3.714626e-001 
5330000000  2.599879e-001  3.618979e-001 
5335000000  2.730645e-001  3.518839e-001 
5340000000  2.860400e-001  3.410656e-001 
5345000000  2.983680e-001  3.297735e-001 
5350000000  3.101548e-001  3.179374e-001 
5355000000  3.216113e-001  3.057244e-001 
5360000000  3.323653e-001  2.924688e-001 
5365000000  3.419902e-001  2.788779e-001 
5370000000  3.503523e-001  2.648630e-001 
5375000000  3.577459e-001  2.517237e-001 
5380000000  3.654192e-001  2.385713e-001 
5385000000  3.724026e-001  2.246604e-001 
5390000000  3.783755e-001  2.115436e-001 
5395000000  3.839429e-001  1.984722e-001 
5400000000  3.902864e-001  1.859887e-001 
5405000000  3.962453e-001  1.716002e-001 
5410000000  4.001551e-001  1.574737e-001 
5415000000  4.041679e-001  1.445449e-001 
5420000000  4.081244e-001  1.320749e-001 
5425000000  4.132029e-001  1.192802e-001 
5430000000  4.171154e-001  1.053508e-001 
5435000000  4.208859e-001  9.094682e-002 
5440000000  4.232154e-001  7.628959e-002 
5445000000  4.240888e-001  6.313736e-002 
5450000000  4.257873e-001  5.029853e-002 
5455000000  4.271099e-001  3.767728e-002 
5460000000  4.283941e-001  2.574489e-002 
5465000000  4.302662e-001  1.329473e-002 
5470000000  4.310833e-001  1.153616e-003 
5475000000  4.323077e-001  -1.128094e-002 
5480000000  4.321688e-001  -2.456499e-002 
5485000000  4.299884e-001  -3.674210e-002 
5490000000  4.275607e-001  -4.688820e-002 
5495000000  4.254761e-001  -5.564427e-002 
5500000000  4.243339e-001  -6.381094e-002 
5505000000  4.230482e-001  -7.166260e-002 
5510000000  4.225868e-001  -7.902185e-002 
5515000000  4.222695e-001  -8.695991e-002 
5520000000  4.210827e-001  -9.500086e-002 
5525000000  4.191007e-001  -1.013986e-001 
5530000000  4.189486e-001  -1.061954e-001 
5535000000  4.200363e-001  -1.125256e-001 
5540000000  4.199215e-001  -1.194655e-001 
5545000000  4.198447e-001  -1.250842e-001 
5550000000  4.217083e-001  -1.310613e-001 
5555000000  4.234013e-001  -1.383624e-001 
5560000000  4.247554e-001  -1.465047e-001 
5565000000  4.254216e-001  -1.553927e-001 
5570000000  4.248812e-001  -1.642648e-001 
5575000000  4.244176e-001  -1.726699e-001 
5580000000  4.238628e-001  -1.816541e-001 
5585000000  4.224675e-001  -1.907702e-001 
5590000000  4.209018e-001  -1.995193e-001 
5595000000  4.194586e-001  -2.080718e-001 
5600000000  4.178005e-001  -2.174786e-001 
5605000000  4.152695e-001  -2.270041e-001 
5610000000  4.125343e-001  -2.362008e-001 
5615000000  4.090675e-001  -2.452800e-001 
5620000000  4.056631e-001  -2.544713e-001 
5625000000  4.025153e-001  -2.637243e-001 
5630000000  3.987405e-001  -2.731961e-001 
5635000000  3.947076e-001  -2.825638e-001 
5640000000  3.910714e-001  -2.916732e-001 
5645000000  3.868484e-001  -3.020398e-001 
5650000000  3.819571e-001  -3.120268e-001 
5655000000  3.762428e-001  -3.212267e-001 
5660000000  3.708043e-001  -3.298018e-001 
5665000000  3.656132e-001  -3.386071e-001 
5670000000  3.596805e-001  -3.469634e-001 
5675000000  3.537507e-001  -3.545207e-001 
5680000000  3.488340e-001  -3.615397e-001 
5685000000  3.441262e-001  -3.688467e-001 
5690000000  3.393580e-001  -3.765124e-001 
5695000000  3.340923e-001  -3.842398e-001 
5700000000  3.278565e-001  -3.911698e-001 
5705000000  3.227309e-001  -3.971584e-001 
5710000000  3.180578e-001  -4.031741e-001 
5715000000  3.130745e-001  -4.101551e-001 
5720000000  3.075008e-001  -4.163693e-001 
5725000000  3.018965e-001  -4.222439e-001 
5730000000  2.964364e-001  -4.278458e-001 
5735000000  2.908198e-001  -4.329582e-001 
5740000000  2.853688e-001  -4.378785e-001 
5745000000  2.798430e-001  -4.433113e-001 
5750000000  2.734254e-001  -4.480311e-001 
5755000000  2.667050e-001  -4.522020e-001 
5760000000  2.608495e-001  -4.550029e-001 
5765000000  2.543070e-001  -4.586893e-001 
5770000000  2.480117e-001  -4.605500e-001 
5775000000  2.427630e-001  -4.623886e-001 
5780000000  2.378419e-001  -4.652453e-001 
5785000000  2.319015e-001  -4.675432e-001 
5790000000  2.257026e-001  -4.697126e-001 
5795000000  2.194797e-001  -4.712916e-001 
5800000000  2.133297e-001  -4.719221e-001 
5805000000  2.082859e-001  -4.722317e-001 
5810000000  2.035487e-001  -4.730195e-001 
5815000000  1.989859e-001  -4.738814e-001 
5820000000  1.947779e-001  -4.754445e-001 
5825000000  1.898670e-001  -4.770891e-001 
5830000000  1.853438e-001  -4.782065e-001 
5835000000  1.793833e-001  -4.796576e-001 
5840000000  1.748609e-001  -4.799089e-001 
5845000000  1.709914e-001  -4.810170e-001 
5850000000  1.666871e-001  -4.825708e-001 
5855000000  1.620480e-001  -4.838509e-001 
5860000000  1.581612e-001  -4.840142e-001 
5865000000  1.558372e-001  -4.848371e-001 
5870000000  1.535383e-001  -4.868588e-001 
5875000000  1.512532e-001  -4.900692e-001 
5880000000  1.482941e-001  -4.934545e-001 
5885000000  1.447013e-001  -4.973980e-001 
5890000000  1.408881e-001  -5.005111e-001 
5895000000  1.370710e-001  -5.038027e-001 
5900000000  1.336213e-001  -5.070156e-001 
5905000000  1.311076e-001  -5.109380e-001 
5910000000  1.275021e-001  -5.161775e-001 
5915000000  1.234326e-001  -5.205559e-001 
5920000000  1.193500e-001  -5.258635e-001 
5925000000  1.141002e-001  -5.307631e-001 
5930000000  1.092628e-001  -5.356244e-001 
5935000000  1.033408e-001  -5.402645e-001 
5940000000  9.760719e-002  -5.442604e-001 
5945000000  9.244209e-002  -5.488560e-001 
5950000000  8.562239e-002  -5.537652e-001 
5955000000  7.846215e-002  -5.578896e-001 
5960000000  7.123996e-002  -5.609761e-001 
5965000000  6.368193e-002  -5.643222e-001 
5970000000  5.618124e-002  -5.663196e-001 
5975000000  4.879208e-002  -5.681697e-001 
5980000000  4.124348e-002  -5.699229e-001 
5985000000  3.333790e-002  -5.713210e-001 
5990000000  2.594938e-002  -5.714933e-001 
5995000000  1.877712e-002  -5.719622e-001 
6000000000  1.187276e-002  -5.720077e-001 
