!Agilent Technologies,E8364B,MY43040633,A.07.50.37
!Agilent E8364B: A.07.50.37
!Date: Tuesday, December 16, 2025 17:10:54
!Correction: S11(Full 1 Port(1)) 
!S1P File: Measurement: S11:
# Hz S  RI   R 50
1000000000  1.302076e-001  9.846675e-001 
1005000000  1.423558e-001  9.820233e-001 
1010000000  1.542825e-001  9.804798e-001 
1015000000  1.668938e-001  9.777130e-001 
1020000000  1.787008e-001  9.755650e-001 
1025000000  1.908646e-001  9.727345e-001 
1030000000  2.031985e-001  9.695261e-001 
1035000000  2.161067e-001  9.668970e-001 
1040000000  2.281725e-001  9.640896e-001 
1045000000  2.393373e-001  9.606523e-001 
1050000000  2.514793e-001  9.579775e-001 
1055000000  2.639998e-001  9.537075e-001 
1060000000  2.766116e-001  9.506229e-001 
1065000000  2.892225e-001  9.461801e-001 
1070000000  3.011583e-001  9.427192e-001 
1075000000  3.138654e-001  9.390341e-001 
1080000000  3.256658e-001  9.344453e-001 
1085000000  3.377871e-001  9.302692e-001 
1090000000  3.499947e-001  9.256373e-001 
1095000000  3.625182e-001  9.203504e-001 
1100000000  3.741618e-001  9.150926e-001 
1105000000  3.868501e-001  9.097916e-001 
1110000000  3.982988e-001  9.047021e-001 
1115000000  4.102647e-001  8.988298e-001 
1120000000  4.216454e-001  8.928879e-001 
1125000000  4.341163e-001  8.868532e-001 
1130000000  4.448125e-001  8.802161e-001 
1135000000  4.572255e-001  8.741478e-001 
1140000000  4.680908e-001  8.678489e-001 
1145000000  4.789432e-001  8.612130e-001 
1150000000  4.905528e-001  8.543630e-001 
1155000000  5.017363e-001  8.475843e-001 
1160000000  5.122532e-001  8.412768e-001 
1165000000  5.237734e-001  8.334682e-001 
1170000000  5.345790e-001  8.262691e-001 
1175000000  5.447591e-001  8.190261e-001 
1180000000  5.558152e-001  8.118410e-001 
1185000000  5.671991e-001  8.035306e-001 
1190000000  5.769795e-001  7.950373e-001 
1195000000  5.868322e-001  7.872607e-001 
1200000000  5.969914e-001  7.791099e-001 
1205000000  6.070740e-001  7.705275e-001 
1210000000  6.171200e-001  7.613738e-001 
1215000000  6.267642e-001  7.528695e-001 
1220000000  6.362342e-001  7.441368e-001 
1225000000  6.463611e-001  7.349832e-001 
1230000000  6.547822e-001  7.262524e-001 
1235000000  6.646995e-001  7.169785e-001 
1240000000  6.738136e-001  7.075678e-001 
1245000000  6.833678e-001  6.976054e-001 
1250000000  6.911746e-001  6.887488e-001 
1255000000  6.999937e-001  6.790352e-001 
1260000000  7.090886e-001  6.693807e-001 
1265000000  7.188373e-001  6.593341e-001 
1270000000  7.269028e-001  6.496946e-001 
1275000000  7.356222e-001  6.392847e-001 
1280000000  7.447434e-001  6.286151e-001 
1285000000  7.530661e-001  6.186838e-001 
1290000000  7.617077e-001  6.080253e-001 
1295000000  7.703077e-001  5.966297e-001 
1300000000  7.789113e-001  5.857558e-001 
1305000000  7.875724e-001  5.738801e-001 
1310000000  7.947690e-001  5.627491e-001 
1315000000  8.025476e-001  5.507966e-001 
1320000000  8.109206e-001  5.390059e-001 
1325000000  8.179180e-001  5.270524e-001 
1330000000  8.259634e-001  5.146384e-001 
1335000000  8.327323e-001  5.022407e-001 
1340000000  8.402845e-001  4.895266e-001 
1345000000  8.473465e-001  4.769793e-001 
1350000000  8.547037e-001  4.632680e-001 
1355000000  8.608893e-001  4.503434e-001 
1360000000  8.673956e-001  4.364089e-001 
1365000000  8.727614e-001  4.229696e-001 
1370000000  8.780862e-001  4.097938e-001 
1375000000  8.847860e-001  3.955728e-001 
1380000000  8.894973e-001  3.822139e-001 
1385000000  8.947822e-001  3.679778e-001 
1390000000  8.992004e-001  3.544023e-001 
1395000000  9.037042e-001  3.408562e-001 
1400000000  9.090877e-001  3.268642e-001 
1405000000  9.131109e-001  3.123130e-001 
1410000000  9.172827e-001  2.986012e-001 
1415000000  9.220698e-001  2.839008e-001 
1420000000  9.255581e-001  2.688777e-001 
1425000000  9.293340e-001  2.541408e-001 
1430000000  9.333613e-001  2.391572e-001 
1435000000  9.360834e-001  2.246066e-001 
1440000000  9.390727e-001  2.094457e-001 
1445000000  9.411765e-001  1.937344e-001 
1450000000  9.435800e-001  1.791290e-001 
1455000000  9.449996e-001  1.642351e-001 
1460000000  9.472880e-001  1.488468e-001 
1465000000  9.496369e-001  1.338546e-001 
1470000000  9.514388e-001  1.185498e-001 
1475000000  9.524992e-001  1.035042e-001 
1480000000  9.549754e-001  8.700164e-002 
1485000000  9.555539e-001  7.127327e-002 
1490000000  9.560134e-001  5.592585e-002 
1495000000  9.573680e-001  3.885736e-002 
1500000000  9.572868e-001  2.303119e-002 
1505000000  9.567127e-001  7.211212e-003 
1510000000  9.565053e-001  -9.215304e-003 
1515000000  9.559722e-001  -2.591947e-002 
1520000000  9.543156e-001  -4.097923e-002 
1525000000  9.531426e-001  -5.745726e-002 
1530000000  9.518322e-001  -7.288407e-002 
1535000000  9.503497e-001  -8.986409e-002 
1540000000  9.488465e-001  -1.059070e-001 
1545000000  9.464962e-001  -1.215904e-001 
1550000000  9.442065e-001  -1.388475e-001 
1555000000  9.415848e-001  -1.559152e-001 
1560000000  9.385057e-001  -1.722365e-001 
1565000000  9.348490e-001  -1.889251e-001 
1570000000  9.308439e-001  -2.053776e-001 
1575000000  9.263315e-001  -2.216764e-001 
1580000000  9.214932e-001  -2.371141e-001 
1585000000  9.169766e-001  -2.542871e-001 
1590000000  9.118651e-001  -2.698378e-001 
1595000000  9.065998e-001  -2.862817e-001 
1600000000  9.010031e-001  -3.016691e-001 
1605000000  8.951056e-001  -3.169252e-001 
1610000000  8.886217e-001  -3.329029e-001 
1615000000  8.821125e-001  -3.487276e-001 
1620000000  8.751794e-001  -3.648626e-001 
1625000000  8.680654e-001  -3.803805e-001 
1630000000  8.607458e-001  -3.959398e-001 
1635000000  8.528290e-001  -4.120531e-001 
1640000000  8.448344e-001  -4.261036e-001 
1645000000  8.366354e-001  -4.421052e-001 
1650000000  8.278776e-001  -4.575705e-001 
1655000000  8.184010e-001  -4.735117e-001 
1660000000  8.090180e-001  -4.887671e-001 
1665000000  7.994387e-001  -5.034708e-001 
1670000000  7.893788e-001  -5.178654e-001 
1675000000  7.787178e-001  -5.327970e-001 
1680000000  7.674325e-001  -5.474523e-001 
1685000000  7.558624e-001  -5.625383e-001 
1690000000  7.436085e-001  -5.777208e-001 
1695000000  7.319606e-001  -5.914450e-001 
1700000000  7.195555e-001  -6.054575e-001 
1705000000  7.064936e-001  -6.194193e-001 
1710000000  6.929892e-001  -6.331320e-001 
1715000000  6.787772e-001  -6.468835e-001 
1720000000  6.650732e-001  -6.601534e-001 
1725000000  6.510569e-001  -6.725532e-001 
1730000000  6.364213e-001  -6.848999e-001 
1735000000  6.218261e-001  -6.976746e-001 
1740000000  6.068360e-001  -7.095031e-001 
1745000000  5.908941e-001  -7.220144e-001 
1750000000  5.754200e-001  -7.334410e-001 
1755000000  5.584405e-001  -7.451447e-001 
1760000000  5.421790e-001  -7.559795e-001 
1765000000  5.254759e-001  -7.667379e-001 
1770000000  5.086156e-001  -7.775261e-001 
1775000000  4.910490e-001  -7.877681e-001 
1780000000  4.728530e-001  -7.982244e-001 
1785000000  4.546527e-001  -8.075063e-001 
1790000000  4.364713e-001  -8.164466e-001 
1795000000  4.180999e-001  -8.252466e-001 
1800000000  3.998204e-001  -8.332291e-001 
1805000000  3.805643e-001  -8.412031e-001 
1810000000  3.609319e-001  -8.487242e-001 
1815000000  3.417617e-001  -8.556067e-001 
1820000000  3.210333e-001  -8.627915e-001 
1825000000  3.002783e-001  -8.688282e-001 
1830000000  2.795291e-001  -8.741692e-001 
1835000000  2.581838e-001  -8.797805e-001 
1840000000  2.371745e-001  -8.843247e-001 
1845000000  2.148545e-001  -8.883542e-001 
1850000000  1.920519e-001  -8.916071e-001 
1855000000  1.699592e-001  -8.941920e-001 
1860000000  1.467352e-001  -8.954883e-001 
1865000000  1.235439e-001  -8.968424e-001 
1870000000  9.888010e-002  -8.966892e-001 
1875000000  7.500888e-002  -8.959587e-001 
1880000000  4.990301e-002  -8.937243e-001 
1885000000  2.443722e-002  -8.897382e-001 
1890000000  -1.223361e-003  -8.847470e-001 
1895000000  -2.774394e-002  -8.774613e-001 
1900000000  -5.427517e-002  -8.676002e-001 
1905000000  -8.017077e-002  -8.550969e-001 
1910000000  -1.055026e-001  -8.393295e-001 
1915000000  -1.289402e-001  -8.203278e-001 
1920000000  -1.499734e-001  -7.973796e-001 
1925000000  -1.668515e-001  -7.697206e-001 
1930000000  -1.763102e-001  -7.392357e-001 
1935000000  -1.762954e-001  -7.071769e-001 
1940000000  -1.647809e-001  -6.784059e-001 
1945000000  -1.429164e-001  -6.590044e-001 
1950000000  -1.155456e-001  -6.541954e-001 
1955000000  -9.061736e-002  -6.660708e-001 
1960000000  -7.746810e-002  -6.889195e-001 
1965000000  -7.556471e-002  -7.172675e-001 
1970000000  -8.590525e-002  -7.440817e-001 
1975000000  -1.043353e-001  -7.669761e-001 
1980000000  -1.278461e-001  -7.839212e-001 
1985000000  -1.531235e-001  -7.964669e-001 
1990000000  -1.803680e-001  -8.055622e-001 
1995000000  -2.089897e-001  -8.107638e-001 
2000000000  -2.371864e-001  -8.119385e-001 
2005000000  -2.647339e-001  -8.104911e-001 
2010000000  -2.915105e-001  -8.072146e-001 
2015000000  -3.181511e-001  -8.025138e-001 
2020000000  -3.440742e-001  -7.951587e-001 
2025000000  -3.683671e-001  -7.864542e-001 
2030000000  -3.916282e-001  -7.768473e-001 
2035000000  -4.137063e-001  -7.667325e-001 
2040000000  -4.354452e-001  -7.562469e-001 
2045000000  -4.570214e-001  -7.447857e-001 
2050000000  -4.780329e-001  -7.327764e-001 
2055000000  -4.985295e-001  -7.201707e-001 
2060000000  -5.187620e-001  -7.066885e-001 
2065000000  -5.383295e-001  -6.923734e-001 
2070000000  -5.575970e-001  -6.774350e-001 
2075000000  -5.763499e-001  -6.617840e-001 
2080000000  -5.948636e-001  -6.452144e-001 
2085000000  -6.126790e-001  -6.276589e-001 
2090000000  -6.295298e-001  -6.097938e-001 
2095000000  -6.454637e-001  -5.910228e-001 
2100000000  -6.605617e-001  -5.719453e-001 
2105000000  -6.748162e-001  -5.530479e-001 
2110000000  -6.891267e-001  -5.348034e-001 
2115000000  -7.032011e-001  -5.151084e-001 
2120000000  -7.171848e-001  -4.953905e-001 
2125000000  -7.306963e-001  -4.746056e-001 
2130000000  -7.435241e-001  -4.532670e-001 
2135000000  -7.553352e-001  -4.312815e-001 
2140000000  -7.665218e-001  -4.089620e-001 
2145000000  -7.767048e-001  -3.863194e-001 
2150000000  -7.865580e-001  -3.637103e-001 
2155000000  -7.955354e-001  -3.406205e-001 
2160000000  -8.035516e-001  -3.173000e-001 
2165000000  -8.119167e-001  -2.934295e-001 
2170000000  -8.190601e-001  -2.694778e-001 
2175000000  -8.257418e-001  -2.452547e-001 
2180000000  -8.318151e-001  -2.203623e-001 
2185000000  -8.366719e-001  -1.955996e-001 
2190000000  -8.405879e-001  -1.704891e-001 
2195000000  -8.443134e-001  -1.455169e-001 
2200000000  -8.469895e-001  -1.202347e-001 
2205000000  -8.488451e-001  -9.486884e-002 
2210000000  -8.498451e-001  -6.986511e-002 
2215000000  -8.507684e-001  -4.447263e-002 
2220000000  -8.509669e-001  -1.892526e-002 
2225000000  -8.497766e-001  7.527443e-003 
2230000000  -8.473427e-001  3.416451e-002 
2235000000  -8.435279e-001  5.901933e-002 
2240000000  -8.397688e-001  8.409147e-002 
2245000000  -8.354221e-001  1.093899e-001 
2250000000  -8.300934e-001  1.350806e-001 
2255000000  -8.237586e-001  1.604100e-001 
2260000000  -8.167225e-001  1.856104e-001 
2265000000  -8.088865e-001  2.112106e-001 
2270000000  -8.002585e-001  2.370551e-001 
2275000000  -7.902143e-001  2.628632e-001 
2280000000  -7.786298e-001  2.882541e-001 
2285000000  -7.661837e-001  3.126741e-001 
2290000000  -7.531217e-001  3.369713e-001 
2295000000  -7.392139e-001  3.606985e-001 
2300000000  -7.248096e-001  3.836056e-001 
2305000000  -7.101930e-001  4.068338e-001 
2310000000  -6.952197e-001  4.304094e-001 
2315000000  -6.781145e-001  4.544330e-001 
2320000000  -6.596894e-001  4.780523e-001 
2325000000  -6.394830e-001  5.013328e-001 
2330000000  -6.176193e-001  5.228776e-001 
2335000000  -5.956418e-001  5.435883e-001 
2340000000  -5.725352e-001  5.635507e-001 
2345000000  -5.487468e-001  5.829754e-001 
2350000000  -5.242730e-001  6.017658e-001 
2355000000  -4.991187e-001  6.198345e-001 
2360000000  -4.728293e-001  6.378194e-001 
2365000000  -4.448583e-001  6.545147e-001 
2370000000  -4.160530e-001  6.698453e-001 
2375000000  -3.856901e-001  6.847442e-001 
2380000000  -3.546333e-001  6.978247e-001 
2385000000  -3.236004e-001  7.098480e-001 
2390000000  -2.916274e-001  7.210851e-001 
2395000000  -2.581452e-001  7.309291e-001 
2400000000  -2.233666e-001  7.391869e-001 
2405000000  -1.881313e-001  7.452164e-001 
2410000000  -1.527025e-001  7.505953e-001 
2415000000  -1.158953e-001  7.535942e-001 
2420000000  -7.890477e-002  7.543802e-001 
2425000000  -4.247884e-002  7.534198e-001 
2430000000  -4.767409e-003  7.513976e-001 
2435000000  3.301253e-002  7.470712e-001 
2440000000  7.067274e-002  7.410631e-001 
2445000000  1.087498e-001  7.330841e-001 
2450000000  1.468055e-001  7.229222e-001 
2455000000  1.846797e-001  7.106860e-001 
2460000000  2.224365e-001  6.969205e-001 
2465000000  2.606203e-001  6.803044e-001 
2470000000  2.975677e-001  6.612981e-001 
2475000000  3.345438e-001  6.394031e-001 
2480000000  3.695402e-001  6.147403e-001 
2485000000  4.032317e-001  5.884762e-001 
2490000000  4.350584e-001  5.604650e-001 
2495000000  4.651864e-001  5.310909e-001 
2500000000  4.939033e-001  5.004146e-001 
2505000000  5.228547e-001  4.686983e-001 
2510000000  5.508842e-001  4.340602e-001 
2515000000  5.773631e-001  3.965615e-001 
2520000000  6.012523e-001  3.568510e-001 
2525000000  6.222641e-001  3.145027e-001 
2530000000  6.396397e-001  2.711770e-001 
2535000000  6.539686e-001  2.270865e-001 
2540000000  6.652249e-001  1.825045e-001 
2545000000  6.739827e-001  1.377032e-001 
2550000000  6.807633e-001  9.304316e-002 
2555000000  6.855593e-001  4.793720e-002 
2560000000  6.875593e-001  1.757576e-003 
2565000000  6.863768e-001  -4.489684e-002 
2570000000  6.823132e-001  -9.204649e-002 
2575000000  6.740691e-001  -1.388142e-001 
2580000000  6.625207e-001  -1.840169e-001 
2585000000  6.485775e-001  -2.276582e-001 
2590000000  6.316989e-001  -2.702451e-001 
2595000000  6.131110e-001  -3.108572e-001 
2600000000  5.924150e-001  -3.506435e-001 
2605000000  5.690697e-001  -3.889702e-001 
2610000000  5.437112e-001  -4.257292e-001 
2615000000  5.163400e-001  -4.600286e-001 
2620000000  4.869229e-001  -4.920600e-001 
2625000000  4.570976e-001  -5.219548e-001 
2630000000  4.260241e-001  -5.506055e-001 
2635000000  3.929927e-001  -5.773203e-001 
2640000000  3.586271e-001  -6.010202e-001 
2645000000  3.243595e-001  -6.231136e-001 
2650000000  2.888855e-001  -6.425194e-001 
2655000000  2.534433e-001  -6.601701e-001 
2660000000  2.176502e-001  -6.761109e-001 
2665000000  1.809631e-001  -6.903209e-001 
2670000000  1.433488e-001  -7.014920e-001 
2675000000  1.066452e-001  -7.097437e-001 
2680000000  7.140613e-002  -7.161330e-001 
2685000000  3.690792e-002  -7.215999e-001 
2690000000  2.678037e-003  -7.261308e-001 
2695000000  -3.151615e-002  -7.291989e-001 
2700000000  -6.546812e-002  -7.311150e-001 
2705000000  -9.895047e-002  -7.313864e-001 
2710000000  -1.321227e-001  -7.303779e-001 
2715000000  -1.644293e-001  -7.279255e-001 
2720000000  -1.963597e-001  -7.243063e-001 
2725000000  -2.278180e-001  -7.194905e-001 
2730000000  -2.589070e-001  -7.131635e-001 
2735000000  -2.890691e-001  -7.053460e-001 
2740000000  -3.175568e-001  -6.957293e-001 
2745000000  -3.442248e-001  -6.854201e-001 
2750000000  -3.702385e-001  -6.754171e-001 
2755000000  -3.961321e-001  -6.652070e-001 
2760000000  -4.205260e-001  -6.537879e-001 
2765000000  -4.448587e-001  -6.426200e-001 
2770000000  -4.687676e-001  -6.309704e-001 
2775000000  -4.921698e-001  -6.180115e-001 
2780000000  -5.149679e-001  -6.045815e-001 
2785000000  -5.367785e-001  -5.904768e-001 
2790000000  -5.574449e-001  -5.748578e-001 
2795000000  -5.762035e-001  -5.592378e-001 
2800000000  -5.954462e-001  -5.441396e-001 
2805000000  -6.140179e-001  -5.286115e-001 
2810000000  -6.321658e-001  -5.128914e-001 
2815000000  -6.496072e-001  -4.965734e-001 
2820000000  -6.663876e-001  -4.803755e-001 
2825000000  -6.826302e-001  -4.638079e-001 
2830000000  -6.975269e-001  -4.467987e-001 
2835000000  -7.128131e-001  -4.300399e-001 
2840000000  -7.271058e-001  -4.129800e-001 
2845000000  -7.396090e-001  -3.955593e-001 
2850000000  -7.532314e-001  -3.780760e-001 
2855000000  -7.668489e-001  -3.605567e-001 
2860000000  -7.791696e-001  -3.428566e-001 
2865000000  -7.907981e-001  -3.249360e-001 
2870000000  -8.020381e-001  -3.070731e-001 
2875000000  -8.133975e-001  -2.891073e-001 
2880000000  -8.240323e-001  -2.715383e-001 
2885000000  -8.338387e-001  -2.540413e-001 
2890000000  -8.436983e-001  -2.365059e-001 
2895000000  -8.531105e-001  -2.181473e-001 
2900000000  -8.630447e-001  -2.003959e-001 
2905000000  -8.720224e-001  -1.822223e-001 
2910000000  -8.804760e-001  -1.646088e-001 
2915000000  -8.885201e-001  -1.470246e-001 
2920000000  -8.964424e-001  -1.291391e-001 
2925000000  -9.041220e-001  -1.111024e-001 
2930000000  -9.117308e-001  -9.250905e-002 
2935000000  -9.188659e-001  -7.444259e-002 
2940000000  -9.258057e-001  -5.651255e-002 
2945000000  -9.330111e-001  -3.790373e-002 
2950000000  -9.394646e-001  -1.972895e-002 
2955000000  -9.458714e-001  -1.474739e-003 
2960000000  -9.520214e-001  1.689439e-002 
2965000000  -9.581532e-001  3.522817e-002 
2970000000  -9.636496e-001  5.349778e-002 
2975000000  -9.682377e-001  7.078345e-002 
2980000000  -9.739244e-001  9.036385e-002 
2985000000  -9.785003e-001  1.078660e-001 
2990000000  -9.836237e-001  1.269042e-001 
2995000000  -9.891420e-001  1.473732e-001 
3000000000  -9.938352e-001  1.675406e-001 
3005000000  -9.980716e-001  1.870093e-001 
3010000000  -1.002210e+000  2.067531e-001 
3015000000  -1.006192e+000  2.269516e-001 
3020000000  -1.009788e+000  2.472108e-001 
3025000000  -1.013120e+000  2.672102e-001 
3030000000  -1.016071e+000  2.879244e-001 
3035000000  -1.019014e+000  3.072257e-001 
3040000000  -1.021663e+000  3.301707e-001 
3045000000  -1.023992e+000  3.535158e-001 
3050000000  -1.025744e+000  3.775549e-001 
3055000000  -1.027081e+000  4.010438e-001 
3060000000  -1.028013e+000  4.245890e-001 
3065000000  -1.028502e+000  4.488710e-001 
3070000000  -1.028215e+000  4.734147e-001 
3075000000  -1.028002e+000  4.985511e-001 
3080000000  -1.027770e+000  5.216146e-001 
3085000000  -1.024845e+000  5.496432e-001 
3090000000  -1.021012e+000  5.781896e-001 
3095000000  -1.013147e+000  6.109970e-001 
3100000000  -1.004433e+000  6.424593e-001 
3105000000  -9.966930e-001  6.723984e-001 
3110000000  -9.905115e-001  7.002041e-001 
3115000000  -9.855381e-001  7.259994e-001 
3120000000  -9.727533e-001  7.562389e-001 
3125000000  -9.575567e-001  7.873085e-001 
3130000000  -9.364668e-001  8.197216e-001 
3135000000  -9.108046e-001  8.502646e-001 
3140000000  -8.785301e-001  8.806120e-001 
3145000000  -8.500587e-001  9.056518e-001 
3150000000  -8.153781e-001  9.282343e-001 
3155000000  -7.833868e-001  9.454742e-001 
3160000000  -7.530986e-001  9.561319e-001 
3165000000  -7.140903e-001  9.594437e-001 
3170000000  -6.816660e-001  9.533924e-001 
3175000000  -6.508802e-001  9.368364e-001 
3180000000  -6.300947e-001  9.118474e-001 
3185000000  -6.196175e-001  8.809339e-001 
3190000000  -6.248165e-001  8.501170e-001 
3195000000  -6.455793e-001  8.253658e-001 
3200000000  -6.789506e-001  8.147612e-001 
3205000000  -7.175516e-001  8.194798e-001 
3210000000  -7.556478e-001  8.402849e-001 
3215000000  -7.712026e-001  8.702335e-001 
3220000000  -7.886451e-001  9.116888e-001 
3225000000  -8.034255e-001  9.594449e-001 
3230000000  -8.161806e-001  1.012925e+000 
3235000000  -8.235713e-001  1.069980e+000 
3240000000  -8.149496e-001  1.124356e+000 
3245000000  -7.963712e-001  1.174225e+000 
3250000000  -7.679273e-001  1.223473e+000 
3255000000  -7.398286e-001  1.271217e+000 
3260000000  -7.071338e-001  1.314802e+000 
3265000000  -6.712397e-001  1.356183e+000 
3270000000  -6.322782e-001  1.394349e+000 
3275000000  -5.907481e-001  1.429634e+000 
3280000000  -5.473754e-001  1.461630e+000 
3285000000  -4.998223e-001  1.491201e+000 
3290000000  -4.539374e-001  1.515842e+000 
3295000000  -4.056363e-001  1.540384e+000 
3300000000  -3.558518e-001  1.565329e+000 
3305000000  -3.038013e-001  1.574655e+000 
3310000000  -2.520555e-001  1.582771e+000 
3315000000  -2.006153e-001  1.590221e+000 
3320000000  -1.491053e-001  1.594673e+000 
3325000000  -9.861214e-002  1.595662e+000 
3330000000  -4.833439e-002  1.594395e+000 
3335000000  1.201371e-003  1.590104e+000 
3340000000  5.134684e-002  1.583390e+000 
3345000000  9.734190e-002  1.573914e+000 
3350000000  1.439146e-001  1.561935e+000 
3355000000  1.882712e-001  1.548156e+000 
3360000000  2.321067e-001  1.532626e+000 
3365000000  2.733872e-001  1.515383e+000 
3370000000  3.126867e-001  1.496404e+000 
3375000000  3.504706e-001  1.474996e+000 
3380000000  3.868005e-001  1.452185e+000 
3385000000  4.201891e-001  1.429009e+000 
3390000000  4.509529e-001  1.405437e+000 
3395000000  4.824168e-001  1.383284e+000 
3400000000  5.190956e-001  1.361066e+000 
3405000000  5.410298e-001  1.334086e+000 
3410000000  5.665620e-001  1.307333e+000 
3415000000  5.887402e-001  1.281233e+000 
3420000000  6.111481e-001  1.254660e+000 
3425000000  6.311693e-001  1.228307e+000 
3430000000  6.500331e-001  1.202547e+000 
3435000000  6.680860e-001  1.176807e+000 
3440000000  6.843516e-001  1.150484e+000 
3445000000  6.996589e-001  1.125719e+000 
3450000000  7.141415e-001  1.100879e+000 
3455000000  7.276840e-001  1.076898e+000 
3460000000  7.406198e-001  1.053065e+000 
3465000000  7.521365e-001  1.029453e+000 
3470000000  7.629874e-001  1.005643e+000 
3475000000  7.737280e-001  9.820396e-001 
3480000000  7.831771e-001  9.594876e-001 
3485000000  7.912527e-001  9.370912e-001 
3490000000  7.988715e-001  9.155140e-001 
3495000000  8.061015e-001  8.942807e-001 
3500000000  8.128804e-001  8.727247e-001 
3505000000  8.189746e-001  8.517511e-001 
3510000000  8.246861e-001  8.313856e-001 
3515000000  8.294420e-001  8.112611e-001 
3520000000  8.340822e-001  7.913687e-001 
3525000000  8.393940e-001  7.722120e-001 
3530000000  8.436793e-001  7.534107e-001 
3535000000  8.471164e-001  7.360822e-001 
3540000000  8.510646e-001  7.180837e-001 
3545000000  8.545704e-001  6.999770e-001 
3550000000  8.572385e-001  6.822394e-001 
3555000000  8.601133e-001  6.648999e-001 
3560000000  8.621748e-001  6.476821e-001 
3565000000  8.639717e-001  6.307556e-001 
3570000000  8.655321e-001  6.151903e-001 
3575000000  8.670045e-001  5.980188e-001 
3580000000  8.685197e-001  5.810593e-001 
3585000000  8.697958e-001  5.645022e-001 
3590000000  8.700566e-001  5.491964e-001 
3595000000  8.704141e-001  5.332292e-001 
3600000000  8.707635e-001  5.175965e-001 
3605000000  8.708339e-001  5.013752e-001 
3610000000  8.712783e-001  4.849968e-001 
3615000000  8.710214e-001  4.699434e-001 
3620000000  8.706436e-001  4.541715e-001 
3625000000  8.703075e-001  4.393157e-001 
3630000000  8.696045e-001  4.226273e-001 
3635000000  8.682238e-001  4.070179e-001 
3640000000  8.667361e-001  3.910032e-001 
3645000000  8.654248e-001  3.756814e-001 
3650000000  8.637791e-001  3.603668e-001 
3655000000  8.620829e-001  3.452514e-001 
3660000000  8.600689e-001  3.297577e-001 
3665000000  8.576266e-001  3.142337e-001 
3670000000  8.549408e-001  2.985692e-001 
3675000000  8.517725e-001  2.828605e-001 
3680000000  8.483375e-001  2.667758e-001 
3685000000  8.446724e-001  2.509535e-001 
3690000000  8.403214e-001  2.352092e-001 
3695000000  8.363347e-001  2.193172e-001 
3700000000  8.318725e-001  2.031018e-001 
3705000000  8.270617e-001  1.868907e-001 
3710000000  8.214990e-001  1.709336e-001 
3715000000  8.158416e-001  1.550299e-001 
3720000000  8.098962e-001  1.385574e-001 
3725000000  8.037376e-001  1.228823e-001 
3730000000  7.958201e-001  1.060733e-001 
3735000000  7.878383e-001  9.040409e-002 
3740000000  7.797927e-001  7.469025e-002 
3745000000  7.706006e-001  5.886456e-002 
3750000000  7.608629e-001  4.275919e-002 
3755000000  7.508348e-001  2.763600e-002 
3760000000  7.399653e-001  1.227155e-002 
3765000000  7.284918e-001  -3.499751e-003 
3770000000  7.157536e-001  -1.934405e-002 
3775000000  7.016593e-001  -3.494502e-002 
3780000000  6.860411e-001  -5.088767e-002 
3785000000  6.695936e-001  -6.448092e-002 
3790000000  6.518496e-001  -7.858554e-002 
3795000000  6.332850e-001  -9.253539e-002 
3800000000  6.129798e-001  -1.054185e-001 
3805000000  5.909582e-001  -1.171669e-001 
3810000000  5.683465e-001  -1.277991e-001 
3815000000  5.438682e-001  -1.375296e-001 
3820000000  5.171316e-001  -1.462520e-001 
3825000000  4.882474e-001  -1.516760e-001 
3830000000  4.600784e-001  -1.545178e-001 
3835000000  4.298410e-001  -1.558661e-001 
3840000000  3.990734e-001  -1.544439e-001 
3845000000  3.663709e-001  -1.511406e-001 
3850000000  3.331017e-001  -1.430593e-001 
3855000000  2.994750e-001  -1.317216e-001 
3860000000  2.650322e-001  -1.158320e-001 
3865000000  2.322696e-001  -9.425721e-002 
3870000000  2.026050e-001  -6.799690e-002 
3875000000  1.765247e-001  -3.893308e-002 
3880000000  1.534992e-001  -6.149200e-003 
3885000000  1.340338e-001  2.905806e-002 
3890000000  1.185464e-001  6.776846e-002 
3895000000  1.084333e-001  1.083801e-001 
3900000000  1.039008e-001  1.509754e-001 
3905000000  1.062146e-001  1.939961e-001 
3910000000  1.140057e-001  2.347073e-001 
3915000000  1.271595e-001  2.732852e-001 
3920000000  1.442426e-001  3.099576e-001 
3925000000  1.663064e-001  3.434191e-001 
3930000000  1.921209e-001  3.720253e-001 
3935000000  2.184426e-001  3.969866e-001 
3940000000  2.472462e-001  4.186230e-001 
3945000000  2.775112e-001  4.365713e-001 
3950000000  3.089777e-001  4.502656e-001 
3955000000  3.402618e-001  4.601371e-001 
3960000000  3.717476e-001  4.662297e-001 
3965000000  4.009758e-001  4.696307e-001 
3970000000  4.296004e-001  4.706265e-001 
3975000000  4.580079e-001  4.686111e-001 
3980000000  4.845281e-001  4.651147e-001 
3985000000  5.107499e-001  4.589192e-001 
3990000000  5.351843e-001  4.514156e-001 
3995000000  5.582349e-001  4.423705e-001 
4000000000  5.790613e-001  4.324697e-001 
4005000000  5.987367e-001  4.212732e-001 
4010000000  6.171135e-001  4.098792e-001 
4015000000  6.346843e-001  3.978266e-001 
4020000000  6.509953e-001  3.857292e-001 
4025000000  6.664695e-001  3.726978e-001 
4030000000  6.806502e-001  3.591227e-001 
4035000000  6.940958e-001  3.445888e-001 
4040000000  7.059587e-001  3.305351e-001 
4045000000  7.178126e-001  3.159828e-001 
4050000000  7.274185e-001  3.026220e-001 
4055000000  7.377626e-001  2.881158e-001 
4060000000  7.466694e-001  2.742263e-001 
4065000000  7.551134e-001  2.598426e-001 
4070000000  7.630709e-001  2.448305e-001 
4075000000  7.698616e-001  2.305413e-001 
4080000000  7.756763e-001  2.160050e-001 
4085000000  7.816270e-001  2.016906e-001 
4090000000  7.867668e-001  1.878239e-001 
4095000000  7.914310e-001  1.743783e-001 
4100000000  7.969660e-001  1.606080e-001 
4105000000  8.014453e-001  1.466358e-001 
4110000000  8.052497e-001  1.327117e-001 
4115000000  8.090257e-001  1.185390e-001 
4120000000  8.120802e-001  1.048213e-001 
4125000000  8.144634e-001  9.129813e-002 
4130000000  8.168709e-001  7.773763e-002 
4135000000  8.187491e-001  6.431700e-002 
4140000000  8.202099e-001  5.096363e-002 
4145000000  8.210272e-001  3.809028e-002 
4150000000  8.226269e-001  2.448296e-002 
4155000000  8.236893e-001  1.171724e-002 
4160000000  8.243905e-001  -1.369691e-003 
4165000000  8.241377e-001  -1.506563e-002 
4170000000  8.240835e-001  -2.776383e-002 
4175000000  8.231815e-001  -4.101907e-002 
4180000000  8.231222e-001  -5.446019e-002 
4185000000  8.222876e-001  -6.690196e-002 
4190000000  8.209684e-001  -8.051689e-002 
4195000000  8.193880e-001  -9.345712e-002 
4200000000  8.180236e-001  -1.066160e-001 
4205000000  8.157287e-001  -1.192362e-001 
4210000000  8.137227e-001  -1.322100e-001 
4215000000  8.114963e-001  -1.453573e-001 
4220000000  8.093138e-001  -1.579277e-001 
4225000000  8.061793e-001  -1.710679e-001 
4230000000  8.026320e-001  -1.834863e-001 
4235000000  7.994833e-001  -1.969218e-001 
4240000000  7.962157e-001  -2.096846e-001 
4245000000  7.921612e-001  -2.219529e-001 
4250000000  7.879765e-001  -2.345383e-001 
4255000000  7.838928e-001  -2.472434e-001 
4260000000  7.791969e-001  -2.599357e-001 
4265000000  7.741295e-001  -2.727274e-001 
4270000000  7.687741e-001  -2.857713e-001 
4275000000  7.636640e-001  -2.988915e-001 
4280000000  7.578691e-001  -3.105349e-001 
4285000000  7.520534e-001  -3.228491e-001 
4290000000  7.462203e-001  -3.347091e-001 
4295000000  7.397499e-001  -3.466378e-001 
4300000000  7.331656e-001  -3.585275e-001 
4305000000  7.273914e-001  -3.697257e-001 
4310000000  7.201083e-001  -3.809971e-001 
4315000000  7.131509e-001  -3.927463e-001 
4320000000  7.061441e-001  -4.040915e-001 
4325000000  6.988382e-001  -4.145823e-001 
4330000000  6.914032e-001  -4.252573e-001 
4335000000  6.836107e-001  -4.372467e-001 
4340000000  6.757048e-001  -4.475497e-001 
4345000000  6.673188e-001  -4.580885e-001 
4350000000  6.587129e-001  -4.683860e-001 
4355000000  6.499490e-001  -4.785660e-001 
4360000000  6.406958e-001  -4.888433e-001 
4365000000  6.314803e-001  -4.994151e-001 
4370000000  6.218561e-001  -5.093197e-001 
4375000000  6.119939e-001  -5.188956e-001 
4380000000  6.024027e-001  -5.290266e-001 
4385000000  5.923274e-001  -5.387796e-001 
4390000000  5.817070e-001  -5.484741e-001 
4395000000  5.708130e-001  -5.582460e-001 
4400000000  5.594087e-001  -5.679286e-001 
4405000000  5.474576e-001  -5.786839e-001 
4410000000  5.352690e-001  -5.869737e-001 
4415000000  5.229377e-001  -5.960857e-001 
4420000000  5.097755e-001  -6.058821e-001 
4425000000  4.968180e-001  -6.149294e-001 
4430000000  4.828482e-001  -6.243367e-001 
4435000000  4.685768e-001  -6.325570e-001 
4440000000  4.542572e-001  -6.417267e-001 
4445000000  4.392644e-001  -6.498514e-001 
4450000000  4.242509e-001  -6.580398e-001 
4455000000  4.085244e-001  -6.660681e-001 
4460000000  3.927152e-001  -6.740648e-001 
4465000000  3.758274e-001  -6.820322e-001 
4470000000  3.581465e-001  -6.900532e-001 
4475000000  3.405686e-001  -6.971918e-001 
4480000000  3.225111e-001  -7.039807e-001 
4485000000  3.042345e-001  -7.101853e-001 
4490000000  2.854890e-001  -7.167662e-001 
4495000000  2.666425e-001  -7.220591e-001 
4500000000  2.467225e-001  -7.270405e-001 
4505000000  2.269378e-001  -7.310799e-001 
4510000000  2.070113e-001  -7.350581e-001 
4515000000  1.864911e-001  -7.377692e-001 
4520000000  1.659780e-001  -7.404100e-001 
4525000000  1.437929e-001  -7.427043e-001 
4530000000  1.222396e-001  -7.439037e-001 
4535000000  1.005326e-001  -7.439521e-001 
4540000000  7.860211e-002  -7.429883e-001 
4545000000  5.566128e-002  -7.415218e-001 
4550000000  3.355213e-002  -7.386363e-001 
4555000000  1.074548e-002  -7.347510e-001 
4560000000  -1.203433e-002  -7.302554e-001 
4565000000  -3.509781e-002  -7.242630e-001 
4570000000  -5.815371e-002  -7.171155e-001 
4575000000  -8.161063e-002  -7.088569e-001 
4580000000  -1.046255e-001  -6.992929e-001 
4585000000  -1.275945e-001  -6.883128e-001 
4590000000  -1.502425e-001  -6.759725e-001 
4595000000  -1.726487e-001  -6.621608e-001 
4600000000  -1.952323e-001  -6.466659e-001 
4605000000  -2.171966e-001  -6.292784e-001 
4610000000  -2.387774e-001  -6.097879e-001 
4615000000  -2.594342e-001  -5.883806e-001 
4620000000  -2.788877e-001  -5.650796e-001 
4625000000  -2.961619e-001  -5.400661e-001 
4630000000  -3.119279e-001  -5.136449e-001 
4635000000  -3.257816e-001  -4.861087e-001 
4640000000  -3.381858e-001  -4.565152e-001 
4645000000  -3.467486e-001  -4.265800e-001 
4650000000  -3.532178e-001  -3.954648e-001 
4655000000  -3.565693e-001  -3.646745e-001 
4660000000  -3.567044e-001  -3.332824e-001 
4665000000  -3.531789e-001  -3.027618e-001 
4670000000  -3.455200e-001  -2.741866e-001 
4675000000  -3.348324e-001  -2.483567e-001 
4680000000  -3.219387e-001  -2.259180e-001 
4685000000  -3.072585e-001  -2.076624e-001 
4690000000  -2.925084e-001  -1.923891e-001 
4695000000  -2.769247e-001  -1.811496e-001 
4700000000  -2.621051e-001  -1.736510e-001 
4705000000  -2.479777e-001  -1.702030e-001 
4710000000  -2.368532e-001  -1.706805e-001 
4715000000  -2.288567e-001  -1.732888e-001 
4720000000  -2.244494e-001  -1.781609e-001 
4725000000  -2.246326e-001  -1.831516e-001 
4730000000  -2.283709e-001  -1.873438e-001 
4735000000  -2.344229e-001  -1.901588e-001 
4740000000  -2.426600e-001  -1.914961e-001 
4745000000  -2.529820e-001  -1.917890e-001 
4750000000  -2.652231e-001  -1.899064e-001 
4755000000  -2.788273e-001  -1.856476e-001 
4760000000  -2.931247e-001  -1.794250e-001 
4765000000  -3.084010e-001  -1.700888e-001 
4770000000  -3.235366e-001  -1.578797e-001 
4775000000  -3.375456e-001  -1.436598e-001 
4780000000  -3.509309e-001  -1.271666e-001 
4785000000  -3.632520e-001  -1.082824e-001 
4790000000  -3.739720e-001  -8.804981e-002 
4795000000  -3.832846e-001  -6.611560e-002 
4800000000  -3.914002e-001  -4.297435e-002 
4805000000  -3.974122e-001  -1.820564e-002 
4810000000  -4.020871e-001  7.417838e-003 
4815000000  -4.044617e-001  3.470373e-002 
4820000000  -4.049992e-001  6.184899e-002 
4825000000  -4.035197e-001  8.988550e-002 
4830000000  -4.000916e-001  1.182193e-001 
4835000000  -3.946512e-001  1.461143e-001 
4840000000  -3.869607e-001  1.744799e-001 
4845000000  -3.773012e-001  2.026417e-001 
4850000000  -3.652159e-001  2.299053e-001 
4855000000  -3.517328e-001  2.557094e-001 
4860000000  -3.364727e-001  2.811252e-001 
4865000000  -3.201049e-001  3.049826e-001 
4870000000  -3.023212e-001  3.286139e-001 
4875000000  -2.831171e-001  3.513811e-001 
4880000000  -2.619522e-001  3.733625e-001 
4885000000  -2.392918e-001  3.931530e-001 
4890000000  -2.163333e-001  4.115254e-001 
4895000000  -1.921116e-001  4.290393e-001 
4900000000  -1.665777e-001  4.451735e-001 
4905000000  -1.401588e-001  4.594668e-001 
4910000000  -1.131349e-001  4.722360e-001 
4915000000  -8.512511e-002  4.828596e-001 
4920000000  -5.795434e-002  4.916914e-001 
4925000000  -3.016103e-002  4.994851e-001 
4930000000  -2.069364e-003  5.058877e-001 
4935000000  2.622998e-002  5.108088e-001 
4940000000  5.432816e-002  5.141422e-001 
4945000000  8.205374e-002  5.167726e-001 
4950000000  1.107509e-001  5.180712e-001 
4955000000  1.394959e-001  5.177680e-001 
4960000000  1.682229e-001  5.157815e-001 
4965000000  1.966876e-001  5.120915e-001 
4970000000  2.243075e-001  5.068611e-001 
4975000000  2.514994e-001  5.008085e-001 
4980000000  2.784867e-001  4.938776e-001 
4985000000  3.055223e-001  4.856673e-001 
4990000000  3.322321e-001  4.754182e-001 
4995000000  3.568621e-001  4.648635e-001 
5000000000  3.820117e-001  4.523543e-001 
5005000000  4.051063e-001  4.396893e-001 
5010000000  4.279375e-001  4.256159e-001 
5015000000  4.499676e-001  4.107778e-001 
5020000000  4.703771e-001  3.957980e-001 
5025000000  4.906660e-001  3.798383e-001 
5030000000  5.098410e-001  3.634255e-001 
5035000000  5.279672e-001  3.462298e-001 
5040000000  5.451541e-001  3.280813e-001 
5045000000  5.609375e-001  3.092672e-001 
5050000000  5.752522e-001  2.912730e-001 
5055000000  5.891382e-001  2.725112e-001 
5060000000  6.017120e-001  2.537919e-001 
5065000000  6.135853e-001  2.342754e-001 
5070000000  6.243434e-001  2.146714e-001 
5075000000  6.338341e-001  1.946383e-001 
5080000000  6.424162e-001  1.752443e-001 
5085000000  6.501692e-001  1.558883e-001 
5090000000  6.569334e-001  1.364858e-001 
5095000000  6.629695e-001  1.164119e-001 
5100000000  6.678587e-001  9.658466e-002 
5105000000  6.712815e-001  7.725382e-002 
5110000000  6.743750e-001  5.875719e-002 
5115000000  6.770120e-001  3.992794e-002 
5120000000  6.789644e-001  2.125260e-002 
5125000000  6.802022e-001  2.405280e-003 
5130000000  6.804356e-001  -1.629891e-002 
5135000000  6.800083e-001  -3.477446e-002 
5140000000  6.787087e-001  -5.313473e-002 
5145000000  6.763652e-001  -7.061899e-002 
5150000000  6.741678e-001  -8.775515e-002 
5155000000  6.722067e-001  -1.048396e-001 
5160000000  6.694984e-001  -1.225514e-001 
5165000000  6.658081e-001  -1.400573e-001 
5170000000  6.618316e-001  -1.576823e-001 
5175000000  6.566256e-001  -1.745940e-001 
5180000000  6.509017e-001  -1.910762e-001 
5185000000  6.443908e-001  -2.070390e-001 
5190000000  6.370769e-001  -2.224105e-001 
5195000000  6.303484e-001  -2.367646e-001 
5200000000  6.225573e-001  -2.509246e-001 
5205000000  6.143042e-001  -2.644372e-001 
5210000000  6.055213e-001  -2.767003e-001 
5215000000  5.970430e-001  -2.882935e-001 
5220000000  5.878950e-001  -2.996814e-001 
5225000000  5.791191e-001  -3.094956e-001 
5230000000  5.700920e-001  -3.185817e-001 
5235000000  5.612081e-001  -3.275185e-001 
5240000000  5.520980e-001  -3.354899e-001 
5245000000  5.426030e-001  -3.420180e-001 
5250000000  5.340696e-001  -3.468474e-001 
5255000000  5.274466e-001  -3.509169e-001 
5260000000  5.212032e-001  -3.546816e-001 
5265000000  5.156997e-001  -3.578286e-001 
5270000000  5.110252e-001  -3.606457e-001 
5275000000  5.082073e-001  -3.624780e-001 
5280000000  5.071518e-001  -3.653382e-001 
5285000000  5.070699e-001  -3.688202e-001 
5290000000  5.073103e-001  -3.737625e-001 
5295000000  5.083660e-001  -3.795452e-001 
5300000000  5.094572e-001  -3.864231e-001 
5305000000  5.107513e-001  -3.938765e-001 
5310000000  5.124475e-001  -4.028773e-001 
5315000000  5.136656e-001  -4.132231e-001 
5320000000  5.132859e-001  -4.254116e-001 
5325000000  5.122374e-001  -4.381861e-001 
5330000000  5.092775e-001  -4.518552e-001 
5335000000  5.052204e-001  -4.655804e-001 
5340000000  5.002733e-001  -4.783568e-001 
5345000000  4.946717e-001  -4.917575e-001 
5350000000  4.877013e-001  -5.056017e-001 
5355000000  4.801537e-001  -5.190747e-001 
5360000000  4.717230e-001  -5.324323e-001 
5365000000  4.618612e-001  -5.452247e-001 
5370000000  4.521254e-001  -5.568168e-001 
5375000000  4.413477e-001  -5.693505e-001 
5380000000  4.301593e-001  -5.807168e-001 
5385000000  4.182028e-001  -5.914499e-001 
5390000000  4.067860e-001  -6.018974e-001 
5395000000  3.943848e-001  -6.116374e-001 
5400000000  3.819023e-001  -6.209803e-001 
5405000000  3.693478e-001  -6.300464e-001 
5410000000  3.562585e-001  -6.389434e-001 
5415000000  3.426360e-001  -6.474848e-001 
5420000000  3.284114e-001  -6.551780e-001 
5425000000  3.141005e-001  -6.617869e-001 
5430000000  3.003443e-001  -6.678389e-001 
5435000000  2.866536e-001  -6.733165e-001 
5440000000  2.729455e-001  -6.787733e-001 
5445000000  2.592261e-001  -6.838607e-001 
5450000000  2.454108e-001  -6.886007e-001 
5455000000  2.317422e-001  -6.924372e-001 
5460000000  2.172950e-001  -6.960589e-001 
5465000000  2.037724e-001  -6.988952e-001 
5470000000  1.904396e-001  -7.015356e-001 
5475000000  1.774284e-001  -7.036229e-001 
5480000000  1.640690e-001  -7.054752e-001 
5485000000  1.509055e-001  -7.072946e-001 
5490000000  1.383394e-001  -7.083331e-001 
5495000000  1.255689e-001  -7.091236e-001 
5500000000  1.125689e-001  -7.097541e-001 
5505000000  9.945972e-002  -7.100183e-001 
5510000000  8.623231e-002  -7.100167e-001 
5515000000  7.352912e-002  -7.093480e-001 
5520000000  6.017257e-002  -7.089909e-001 
5525000000  4.668584e-002  -7.079847e-001 
5530000000  3.389958e-002  -7.069665e-001 
5535000000  2.056416e-002  -7.058496e-001 
5540000000  7.509976e-003  -7.033340e-001 
5545000000  -6.000659e-003  -7.012942e-001 
5550000000  -1.941155e-002  -6.990442e-001 
5555000000  -3.270837e-002  -6.966526e-001 
5560000000  -4.592887e-002  -6.944201e-001 
5565000000  -5.945147e-002  -6.919553e-001 
5570000000  -7.262850e-002  -6.893110e-001 
5575000000  -8.720101e-002  -6.869975e-001 
5580000000  -1.021059e-001  -6.834115e-001 
5585000000  -1.171820e-001  -6.792759e-001 
5590000000  -1.324423e-001  -6.748729e-001 
5595000000  -1.477222e-001  -6.696211e-001 
5600000000  -1.630670e-001  -6.640874e-001 
5605000000  -1.785808e-001  -6.581889e-001 
5610000000  -1.944377e-001  -6.513410e-001 
5615000000  -2.097915e-001  -6.434141e-001 
5620000000  -2.251086e-001  -6.352431e-001 
5625000000  -2.406547e-001  -6.263146e-001 
5630000000  -2.552156e-001  -6.167806e-001 
5635000000  -2.697861e-001  -6.062669e-001 
5640000000  -2.835065e-001  -5.948935e-001 
5645000000  -2.966898e-001  -5.827802e-001 
5650000000  -3.093776e-001  -5.700073e-001 
5655000000  -3.207372e-001  -5.556726e-001 
5660000000  -3.306032e-001  -5.413319e-001 
5665000000  -3.396595e-001  -5.270123e-001 
5670000000  -3.477589e-001  -5.124280e-001 
5675000000  -3.548432e-001  -4.977134e-001 
5680000000  -3.610356e-001  -4.829815e-001 
5685000000  -3.662747e-001  -4.675115e-001 
5690000000  -3.700826e-001  -4.510193e-001 
5695000000  -3.717796e-001  -4.346404e-001 
5700000000  -3.720374e-001  -4.189503e-001 
5705000000  -3.707955e-001  -4.039058e-001 
5710000000  -3.685547e-001  -3.890207e-001 
5715000000  -3.647703e-001  -3.746943e-001 
5720000000  -3.590895e-001  -3.618167e-001 
5725000000  -3.524615e-001  -3.503593e-001 
5730000000  -3.451068e-001  -3.407416e-001 
5735000000  -3.373362e-001  -3.325746e-001 
5740000000  -3.288982e-001  -3.263867e-001 
5745000000  -3.207728e-001  -3.221824e-001 
5750000000  -3.126434e-001  -3.197695e-001 
5755000000  -3.049503e-001  -3.193538e-001 
5760000000  -2.987803e-001  -3.210475e-001 
5765000000  -2.948637e-001  -3.244563e-001 
5770000000  -2.926693e-001  -3.287732e-001 
5775000000  -2.927495e-001  -3.332120e-001 
5780000000  -2.949344e-001  -3.382162e-001 
5785000000  -2.999231e-001  -3.429760e-001 
5790000000  -3.067783e-001  -3.464959e-001 
5795000000  -3.150232e-001  -3.490253e-001 
5800000000  -3.244851e-001  -3.508290e-001 
5805000000  -3.355190e-001  -3.514138e-001 
5810000000  -3.477952e-001  -3.502999e-001 
5815000000  -3.601479e-001  -3.481542e-001 
5820000000  -3.734173e-001  -3.451327e-001 
5825000000  -3.874355e-001  -3.406927e-001 
5830000000  -4.018591e-001  -3.355699e-001 
5835000000  -4.170670e-001  -3.283933e-001 
5840000000  -4.323139e-001  -3.198869e-001 
5845000000  -4.471874e-001  -3.097590e-001 
5850000000  -4.610975e-001  -2.981731e-001 
5855000000  -4.739606e-001  -2.862708e-001 
5860000000  -4.868719e-001  -2.734727e-001 
5865000000  -4.986290e-001  -2.597510e-001 
5870000000  -5.100566e-001  -2.457887e-001 
5875000000  -5.217124e-001  -2.309982e-001 
5880000000  -5.327334e-001  -2.153201e-001 
5885000000  -5.437791e-001  -1.987766e-001 
5890000000  -5.537430e-001  -1.810418e-001 
5895000000  -5.629138e-001  -1.622840e-001 
5900000000  -5.701811e-001  -1.428713e-001 
5905000000  -5.765330e-001  -1.237440e-001 
5910000000  -5.826142e-001  -1.034625e-001 
5915000000  -5.872313e-001  -8.348242e-002 
5920000000  -5.914979e-001  -6.287114e-002 
5925000000  -5.947848e-001  -4.170766e-002 
5930000000  -5.964851e-001  -2.044347e-002 
5935000000  -5.969471e-001  1.025249e-003 
5940000000  -5.964665e-001  2.236323e-002 
5945000000  -5.953338e-001  4.387377e-002 
5950000000  -5.933414e-001  6.588298e-002 
5955000000  -5.902225e-001  8.822017e-002 
5960000000  -5.861418e-001  1.110131e-001 
5965000000  -5.808135e-001  1.343125e-001 
5970000000  -5.739416e-001  1.572607e-001 
5975000000  -5.662694e-001  1.801538e-001 
5980000000  -5.576590e-001  2.028172e-001 
5985000000  -5.477160e-001  2.262469e-001 
5990000000  -5.362541e-001  2.488993e-001 
5995000000  -5.236350e-001  2.709428e-001 
6000000000  -5.107210e-001  2.926392e-001 
