!Agilent Technologies,E8364B,MY43040633,A.07.50.37
!Agilent E8364B: A.07.50.37
!Date: Tuesday, December 16, 2025 17:08:31
!Correction: S11(Full 1 Port(1)) 
!S1P File: Measurement: S11:
# Hz S  RI   R 50
1000000000  -1.388935e-001  9.802214e-001 
1005000000  -1.298815e-001  9.807105e-001 
1010000000  -1.215583e-001  9.819057e-001 
1015000000  -1.119621e-001  9.823954e-001 
1020000000  -1.034491e-001  9.830334e-001 
1025000000  -9.442937e-002  9.831615e-001 
1030000000  -8.529821e-002  9.832180e-001 
1035000000  -7.580470e-002  9.839175e-001 
1040000000  -6.794381e-002  9.842652e-001 
1045000000  -5.930196e-002  9.843460e-001 
1050000000  -5.058666e-002  9.850363e-001 
1055000000  -4.108532e-002  9.849297e-001 
1060000000  -3.184748e-002  9.858506e-001 
1065000000  -2.214595e-002  9.857154e-001 
1070000000  -1.346164e-002  9.862292e-001 
1075000000  -4.430044e-003  9.865821e-001 
1080000000  5.562562e-003  9.862853e-001 
1085000000  1.468949e-002  9.863345e-001 
1090000000  2.492747e-002  9.864438e-001 
1095000000  3.543852e-002  9.858353e-001 
1100000000  4.411341e-002  9.849559e-001 
1105000000  5.465828e-002  9.843582e-001 
1110000000  6.387152e-002  9.833650e-001 
1115000000  7.375754e-002  9.823924e-001 
1120000000  8.346225e-002  9.809939e-001 
1125000000  9.391156e-002  9.797755e-001 
1130000000  1.031767e-001  9.776736e-001 
1135000000  1.127767e-001  9.764488e-001 
1140000000  1.219155e-001  9.748555e-001 
1145000000  1.324190e-001  9.728157e-001 
1150000000  1.418891e-001  9.709831e-001 
1155000000  1.505977e-001  9.690524e-001 
1160000000  1.598269e-001  9.679165e-001 
1165000000  1.696938e-001  9.656509e-001 
1170000000  1.798811e-001  9.639074e-001 
1175000000  1.890400e-001  9.616337e-001 
1180000000  1.987598e-001  9.599373e-001 
1185000000  2.088937e-001  9.572969e-001 
1190000000  2.198279e-001  9.537358e-001 
1195000000  2.284252e-001  9.511431e-001 
1200000000  2.385010e-001  9.479683e-001 
1205000000  2.475168e-001  9.447488e-001 
1210000000  2.576312e-001  9.409241e-001 
1215000000  2.667890e-001  9.372746e-001 
1220000000  2.765884e-001  9.337558e-001 
1225000000  2.856609e-001  9.299268e-001 
1230000000  2.938079e-001  9.261572e-001 
1235000000  3.036100e-001  9.225422e-001 
1240000000  3.133220e-001  9.182710e-001 
1245000000  3.216147e-001  9.139926e-001 
1250000000  3.305862e-001  9.097654e-001 
1255000000  3.393469e-001  9.058248e-001 
1260000000  3.483950e-001  9.021981e-001 
1265000000  3.572437e-001  8.988752e-001 
1270000000  3.668915e-001  8.943193e-001 
1275000000  3.758740e-001  8.902673e-001 
1280000000  3.865296e-001  8.860884e-001 
1285000000  3.958463e-001  8.818526e-001 
1290000000  4.061286e-001  8.771604e-001 
1295000000  4.170537e-001  8.718420e-001 
1300000000  4.273540e-001  8.664358e-001 
1305000000  4.373995e-001  8.606947e-001 
1310000000  4.481094e-001  8.546110e-001 
1315000000  4.579859e-001  8.484593e-001 
1320000000  4.686262e-001  8.425257e-001 
1325000000  4.788502e-001  8.357583e-001 
1330000000  4.899407e-001  8.290588e-001 
1335000000  5.009676e-001  8.214689e-001 
1340000000  5.116817e-001  8.141571e-001 
1345000000  5.225638e-001  8.065149e-001 
1350000000  5.340542e-001  7.975782e-001 
1355000000  5.449865e-001  7.883476e-001 
1360000000  5.565078e-001  7.787301e-001 
1365000000  5.668437e-001  7.684497e-001 
1370000000  5.775849e-001  7.577521e-001 
1375000000  5.877442e-001  7.476543e-001 
1380000000  5.975720e-001  7.363660e-001 
1385000000  6.077220e-001  7.249187e-001 
1390000000  6.166198e-001  7.137939e-001 
1395000000  6.266702e-001  7.018489e-001 
1400000000  6.378300e-001  6.903670e-001 
1405000000  6.475289e-001  6.777271e-001 
1410000000  6.588439e-001  6.643611e-001 
1415000000  6.697578e-001  6.501268e-001 
1420000000  6.795506e-001  6.351947e-001 
1425000000  6.893862e-001  6.197745e-001 
1430000000  7.007167e-001  6.033716e-001 
1435000000  7.100393e-001  5.861711e-001 
1440000000  7.199467e-001  5.670774e-001 
1445000000  7.278373e-001  5.467867e-001 
1450000000  7.351273e-001  5.277482e-001 
1455000000  7.417343e-001  5.077654e-001 
1460000000  7.499542e-001  4.873625e-001 
1465000000  7.581760e-001  4.662320e-001 
1470000000  7.665516e-001  4.425794e-001 
1475000000  7.739753e-001  4.172677e-001 
1480000000  7.826000e-001  3.893239e-001 
1485000000  7.877010e-001  3.587904e-001 
1490000000  7.912771e-001  3.275168e-001 
1495000000  7.946329e-001  2.932945e-001 
1500000000  7.946423e-001  2.568793e-001 
1505000000  7.916607e-001  2.190796e-001 
1510000000  7.867360e-001  1.785740e-001 
1515000000  7.778665e-001  1.372938e-001 
1520000000  7.655721e-001  9.304613e-002 
1525000000  7.497674e-001  4.799606e-002 
1530000000  7.299029e-001  -1.183476e-003 
1535000000  7.011935e-001  -5.309314e-002 
1540000000  6.651331e-001  -1.053055e-001 
1545000000  6.199405e-001  -1.561246e-001 
1550000000  5.637689e-001  -2.078520e-001 
1555000000  4.964905e-001  -2.530084e-001 
1560000000  4.152002e-001  -2.934398e-001 
1565000000  3.203045e-001  -3.176160e-001 
1570000000  2.210532e-001  -3.254932e-001 
1575000000  1.160771e-001  -3.161398e-001 
1580000000  1.329554e-002  -2.871545e-001 
1585000000  -8.657344e-002  -2.408801e-001 
1590000000  -1.803910e-001  -1.749298e-001 
1595000000  -2.601691e-001  -8.958390e-002 
1600000000  -3.182970e-001  1.139657e-002 
1605000000  -3.548172e-001  1.151925e-001 
1610000000  -3.705501e-001  2.213801e-001 
1615000000  -3.666444e-001  3.217756e-001 
1620000000  -3.473859e-001  4.136821e-001 
1625000000  -3.175340e-001  4.952143e-001 
1630000000  -2.777138e-001  5.653630e-001 
1635000000  -2.354125e-001  6.249059e-001 
1640000000  -1.875893e-001  6.754426e-001 
1645000000  -1.404874e-001  7.151837e-001 
1650000000  -9.365169e-002  7.486396e-001 
1655000000  -4.549317e-002  7.761986e-001 
1660000000  8.001456e-004  7.966729e-001 
1665000000  4.401313e-002  8.113477e-001 
1670000000  8.485666e-002  8.225219e-001 
1675000000  1.254538e-001  8.311027e-001 
1680000000  1.630120e-001  8.355209e-001 
1685000000  1.978482e-001  8.377061e-001 
1690000000  2.309786e-001  8.376392e-001 
1695000000  2.616833e-001  8.370940e-001 
1700000000  2.913445e-001  8.353283e-001 
1705000000  3.192917e-001  8.321480e-001 
1710000000  3.464342e-001  8.278465e-001 
1715000000  3.726824e-001  8.218588e-001 
1720000000  3.962660e-001  8.150841e-001 
1725000000  4.186969e-001  8.080168e-001 
1730000000  4.402193e-001  8.007454e-001 
1735000000  4.608219e-001  7.929187e-001 
1740000000  4.803231e-001  7.846305e-001 
1745000000  4.996764e-001  7.760355e-001 
1750000000  5.175312e-001  7.668020e-001 
1755000000  5.353333e-001  7.576345e-001 
1760000000  5.522476e-001  7.480024e-001 
1765000000  5.684041e-001  7.378332e-001 
1770000000  5.838237e-001  7.275999e-001 
1775000000  5.985240e-001  7.170533e-001 
1780000000  6.123397e-001  7.062488e-001 
1785000000  6.261269e-001  6.953055e-001 
1790000000  6.391122e-001  6.845806e-001 
1795000000  6.506198e-001  6.739638e-001 
1800000000  6.621873e-001  6.632087e-001 
1805000000  6.742420e-001  6.519225e-001 
1810000000  6.849304e-001  6.408921e-001 
1815000000  6.941454e-001  6.306133e-001 
1820000000  7.047946e-001  6.198594e-001 
1825000000  7.149929e-001  6.089491e-001 
1830000000  7.244519e-001  5.979299e-001 
1835000000  7.334145e-001  5.867451e-001 
1840000000  7.423679e-001  5.755610e-001 
1845000000  7.506200e-001  5.645778e-001 
1850000000  7.592003e-001  5.535408e-001 
1855000000  7.673425e-001  5.424092e-001 
1860000000  7.757366e-001  5.313686e-001 
1865000000  7.840658e-001  5.195147e-001 
1870000000  7.909879e-001  5.086496e-001 
1875000000  7.979203e-001  4.964747e-001 
1880000000  8.047675e-001  4.847108e-001 
1885000000  8.113371e-001  4.732752e-001 
1890000000  8.177273e-001  4.616745e-001 
1895000000  8.240116e-001  4.496061e-001 
1900000000  8.300249e-001  4.374339e-001 
1905000000  8.360220e-001  4.239393e-001 
1910000000  8.407993e-001  4.115625e-001 
1915000000  8.454950e-001  3.983281e-001 
1920000000  8.493146e-001  3.844964e-001 
1925000000  8.528668e-001  3.705444e-001 
1930000000  8.549693e-001  3.562034e-001 
1935000000  8.570354e-001  3.407038e-001 
1940000000  8.564611e-001  3.250622e-001 
1945000000  8.530574e-001  3.094536e-001 
1950000000  8.461767e-001  2.954915e-001 
1955000000  8.354712e-001  2.866438e-001 
1960000000  8.253146e-001  2.846930e-001 
1965000000  8.203277e-001  2.899667e-001 
1970000000  8.246059e-001  2.965763e-001 
1975000000  8.355814e-001  2.992489e-001 
1980000000  8.491497e-001  2.958445e-001 
1985000000  8.624429e-001  2.875981e-001 
1990000000  8.733547e-001  2.763394e-001 
1995000000  8.824195e-001  2.636143e-001 
2000000000  8.897943e-001  2.504664e-001 
2005000000  8.969068e-001  2.364089e-001 
2010000000  9.020150e-001  2.229486e-001 
2015000000  9.070412e-001  2.081176e-001 
2020000000  9.106847e-001  1.945628e-001 
2025000000  9.139953e-001  1.805573e-001 
2030000000  9.167174e-001  1.661877e-001 
2035000000  9.187459e-001  1.522416e-001 
2040000000  9.206417e-001  1.384746e-001 
2045000000  9.220784e-001  1.248743e-001 
2050000000  9.232295e-001  1.115153e-001 
2055000000  9.239100e-001  9.830312e-002 
2060000000  9.251512e-001  8.568224e-002 
2065000000  9.263620e-001  7.257151e-002 
2070000000  9.274589e-001  5.943565e-002 
2075000000  9.283372e-001  4.591556e-002 
2080000000  9.285492e-001  3.256141e-002 
2085000000  9.286380e-001  1.957414e-002 
2090000000  9.291320e-001  6.543633e-003 
2095000000  9.293121e-001  -7.512601e-003 
2100000000  9.290813e-001  -2.182169e-002 
2105000000  9.280497e-001  -3.598180e-002 
2110000000  9.267191e-001  -4.974483e-002 
2115000000  9.253325e-001  -6.476539e-002 
2120000000  9.230170e-001  -7.949539e-002 
2125000000  9.203032e-001  -9.399799e-002 
2130000000  9.170978e-001  -1.087006e-001 
2135000000  9.131638e-001  -1.229306e-001 
2140000000  9.091358e-001  -1.369400e-001 
2145000000  9.050882e-001  -1.506945e-001 
2150000000  9.012895e-001  -1.643178e-001 
2155000000  8.976756e-001  -1.783714e-001 
2160000000  8.941458e-001  -1.931938e-001 
2165000000  8.891507e-001  -2.087911e-001 
2170000000  8.838011e-001  -2.237672e-001 
2175000000  8.782208e-001  -2.393609e-001 
2180000000  8.718913e-001  -2.557572e-001 
2185000000  8.644959e-001  -2.710318e-001 
2190000000  8.565247e-001  -2.876560e-001 
2195000000  8.483200e-001  -3.038768e-001 
2200000000  8.392302e-001  -3.205415e-001 
2205000000  8.291293e-001  -3.366109e-001 
2210000000  8.186743e-001  -3.529096e-001 
2215000000  8.073075e-001  -3.694060e-001 
2220000000  7.953315e-001  -3.854863e-001 
2225000000  7.826515e-001  -4.019976e-001 
2230000000  7.688910e-001  -4.185099e-001 
2235000000  7.539722e-001  -4.348147e-001 
2240000000  7.386732e-001  -4.504677e-001 
2245000000  7.228070e-001  -4.667984e-001 
2250000000  7.055615e-001  -4.834062e-001 
2255000000  6.867473e-001  -4.998974e-001 
2260000000  6.663089e-001  -5.159945e-001 
2265000000  6.441959e-001  -5.312236e-001 
2270000000  6.208678e-001  -5.455597e-001 
2275000000  5.965083e-001  -5.600891e-001 
2280000000  5.696027e-001  -5.734800e-001 
2285000000  5.413381e-001  -5.858635e-001 
2290000000  5.107160e-001  -5.971425e-001 
2295000000  4.780300e-001  -6.063351e-001 
2300000000  4.437517e-001  -6.137383e-001 
2305000000  4.076828e-001  -6.190559e-001 
2310000000  3.700640e-001  -6.217824e-001 
2315000000  3.308088e-001  -6.228285e-001 
2320000000  2.891054e-001  -6.207904e-001 
2325000000  2.456675e-001  -6.152436e-001 
2330000000  1.996474e-001  -6.058469e-001 
2335000000  1.520943e-001  -5.902783e-001 
2340000000  1.044128e-001  -5.699267e-001 
2345000000  5.581718e-002  -5.434811e-001 
2350000000  7.542979e-003  -5.090576e-001 
2355000000  -3.758588e-002  -4.673102e-001 
2360000000  -8.008201e-002  -4.187128e-001 
2365000000  -1.181629e-001  -3.616269e-001 
2370000000  -1.487349e-001  -2.963987e-001 
2375000000  -1.696401e-001  -2.258630e-001 
2380000000  -1.809980e-001  -1.508326e-001 
2385000000  -1.806527e-001  -7.407170e-002 
2390000000  -1.692317e-001  3.064084e-003 
2395000000  -1.460506e-001  7.836331e-002 
2400000000  -1.122361e-001  1.496871e-001 
2405000000  -6.680642e-002  2.161178e-001 
2410000000  -1.148512e-002  2.723656e-001 
2415000000  4.862201e-002  3.180067e-001 
2420000000  1.139051e-001  3.544245e-001 
2425000000  1.815800e-001  3.796210e-001 
2430000000  2.489971e-001  3.942644e-001 
2435000000  3.148671e-001  4.001104e-001 
2440000000  3.779405e-001  3.977169e-001 
2445000000  4.375749e-001  3.879993e-001 
2450000000  4.924816e-001  3.723726e-001 
2455000000  5.428528e-001  3.521887e-001 
2460000000  5.885645e-001  3.284665e-001 
2465000000  6.299144e-001  3.013999e-001 
2470000000  6.658794e-001  2.720661e-001 
2475000000  6.975798e-001  2.417769e-001 
2480000000  7.256225e-001  2.106489e-001 
2485000000  7.500320e-001  1.790069e-001 
2490000000  7.708914e-001  1.470313e-001 
2495000000  7.886629e-001  1.160808e-001 
2500000000  8.041635e-001  8.480390e-002 
2505000000  8.164448e-001  5.359290e-002 
2510000000  8.267565e-001  2.408301e-002 
2515000000  8.357528e-001  -5.327711e-003 
2520000000  8.428652e-001  -3.435658e-002 
2525000000  8.482020e-001  -6.226336e-002 
2530000000  8.520396e-001  -8.962558e-002 
2535000000  8.545792e-001  -1.163127e-001 
2540000000  8.557091e-001  -1.424719e-001 
2545000000  8.554317e-001  -1.683400e-001 
2550000000  8.547562e-001  -1.924329e-001 
2555000000  8.530198e-001  -2.165345e-001 
2560000000  8.501247e-001  -2.394549e-001 
2565000000  8.465865e-001  -2.619956e-001 
2570000000  8.420705e-001  -2.838632e-001 
2575000000  8.373701e-001  -3.049342e-001 
2580000000  8.317685e-001  -3.259367e-001 
2585000000  8.256430e-001  -3.458937e-001 
2590000000  8.192456e-001  -3.656940e-001 
2595000000  8.120305e-001  -3.849688e-001 
2600000000  8.043092e-001  -4.038539e-001 
2605000000  7.961093e-001  -4.223433e-001 
2610000000  7.872618e-001  -4.403066e-001 
2615000000  7.781639e-001  -4.579363e-001 
2620000000  7.683964e-001  -4.752011e-001 
2625000000  7.582195e-001  -4.920419e-001 
2630000000  7.476677e-001  -5.083188e-001 
2635000000  7.362417e-001  -5.240481e-001 
2640000000  7.249682e-001  -5.391970e-001 
2645000000  7.132731e-001  -5.543446e-001 
2650000000  7.011486e-001  -5.689219e-001 
2655000000  6.889127e-001  -5.830541e-001 
2660000000  6.765455e-001  -5.971141e-001 
2665000000  6.633762e-001  -6.111383e-001 
2670000000  6.497474e-001  -6.247573e-001 
2675000000  6.356704e-001  -6.377444e-001 
2680000000  6.213182e-001  -6.503257e-001 
2685000000  6.065322e-001  -6.626772e-001 
2690000000  5.916257e-001  -6.741962e-001 
2695000000  5.763115e-001  -6.856414e-001 
2700000000  5.604894e-001  -6.966696e-001 
2705000000  5.446244e-001  -7.071337e-001 
2710000000  5.284276e-001  -7.173157e-001 
2715000000  5.121502e-001  -7.271252e-001 
2720000000  4.952462e-001  -7.367842e-001 
2725000000  4.776939e-001  -7.458611e-001 
2730000000  4.598069e-001  -7.544799e-001 
2735000000  4.417121e-001  -7.620081e-001 
2740000000  4.235484e-001  -7.696005e-001 
2745000000  4.047340e-001  -7.766867e-001 
2750000000  3.852132e-001  -7.828872e-001 
2755000000  3.656986e-001  -7.886854e-001 
2760000000  3.460115e-001  -7.937087e-001 
2765000000  3.256876e-001  -7.984230e-001 
2770000000  3.050012e-001  -8.023313e-001 
2775000000  2.837607e-001  -8.053549e-001 
2780000000  2.625834e-001  -8.077359e-001 
2785000000  2.415652e-001  -8.094837e-001 
2790000000  2.189552e-001  -8.108671e-001 
2795000000  1.961222e-001  -8.112358e-001 
2800000000  1.727215e-001  -8.107202e-001 
2805000000  1.486799e-001  -8.089837e-001 
2810000000  1.242746e-001  -8.064633e-001 
2815000000  9.920395e-002  -8.023905e-001 
2820000000  7.389141e-002  -7.970572e-001 
2825000000  4.829797e-002  -7.907133e-001 
2830000000  2.208072e-002  -7.824249e-001 
2835000000  -4.785325e-003  -7.728116e-001 
2840000000  -3.189327e-002  -7.609087e-001 
2845000000  -5.908747e-002  -7.468269e-001 
2850000000  -8.701052e-002  -7.309449e-001 
2855000000  -1.151732e-001  -7.126222e-001 
2860000000  -1.431084e-001  -6.909618e-001 
2865000000  -1.709612e-001  -6.660014e-001 
2870000000  -1.981679e-001  -6.375579e-001 
2875000000  -2.247886e-001  -6.050276e-001 
2880000000  -2.493523e-001  -5.673842e-001 
2885000000  -2.707624e-001  -5.246664e-001 
2890000000  -2.881435e-001  -4.770766e-001 
2895000000  -3.004616e-001  -4.242705e-001 
2900000000  -3.066959e-001  -3.667780e-001 
2905000000  -3.037356e-001  -3.047427e-001 
2910000000  -2.897650e-001  -2.397568e-001 
2915000000  -2.631035e-001  -1.746675e-001 
2920000000  -2.227312e-001  -1.129901e-001 
2925000000  -1.691642e-001  -5.819241e-002 
2930000000  -1.035518e-001  -1.368546e-002 
2935000000  -2.820584e-002  1.637458e-002 
2940000000  5.298854e-002  2.958872e-002 
2945000000  1.351488e-001  2.383958e-002 
2950000000  2.121222e-001  -3.074932e-005 
2955000000  2.789720e-001  -3.905015e-002 
2960000000  3.332401e-001  -8.800791e-002 
2965000000  3.747226e-001  -1.441264e-001 
2970000000  4.022592e-001  -2.033510e-001 
2975000000  4.184741e-001  -2.621545e-001 
2980000000  4.236600e-001  -3.194785e-001 
2985000000  4.195471e-001  -3.732280e-001 
2990000000  4.081832e-001  -4.217952e-001 
2995000000  3.911010e-001  -4.654431e-001 
3000000000  3.703306e-001  -5.038609e-001 
3005000000  3.465846e-001  -5.374975e-001 
3010000000  3.205675e-001  -5.668476e-001 
3015000000  2.931937e-001  -5.917677e-001 
3020000000  2.644141e-001  -6.131613e-001 
3025000000  2.348832e-001  -6.304247e-001 
3030000000  2.059731e-001  -6.440725e-001 
3035000000  1.772420e-001  -6.560203e-001 
3040000000  1.473653e-001  -6.653547e-001 
3045000000  1.174664e-001  -6.718723e-001 
3050000000  8.811492e-002  -6.759218e-001 
3055000000  5.968794e-002  -6.784152e-001 
3060000000  3.063478e-002  -6.795807e-001 
3065000000  8.636228e-004  -6.785496e-001 
3070000000  -2.855977e-002  -6.750861e-001 
3075000000  -5.752137e-002  -6.693068e-001 
3080000000  -8.551935e-002  -6.618921e-001 
3085000000  -1.137808e-001  -6.537961e-001 
3090000000  -1.423956e-001  -6.440129e-001 
3095000000  -1.718151e-001  -6.316912e-001 
3100000000  -2.014955e-001  -6.172175e-001 
3105000000  -2.302548e-001  -6.004148e-001 
3110000000  -2.576714e-001  -5.820854e-001 
3115000000  -2.845210e-001  -5.611249e-001 
3120000000  -3.118741e-001  -5.373408e-001 
3125000000  -3.386459e-001  -5.107000e-001 
3130000000  -3.645126e-001  -4.814659e-001 
3135000000  -3.899664e-001  -4.490679e-001 
3140000000  -4.156133e-001  -4.126147e-001 
3145000000  -4.381072e-001  -3.729537e-001 
3150000000  -4.583685e-001  -3.289872e-001 
3155000000  -4.752051e-001  -2.828596e-001 
3160000000  -4.892903e-001  -2.347278e-001 
3165000000  -5.010613e-001  -1.796585e-001 
3170000000  -5.072405e-001  -1.210391e-001 
3175000000  -5.072792e-001  -5.918502e-002 
3180000000  -5.011333e-001  6.734374e-003 
3185000000  -4.861737e-001  7.670824e-002 
3190000000  -4.604402e-001  1.482652e-001 
3195000000  -4.233884e-001  2.177401e-001 
3200000000  -3.776916e-001  2.841057e-001 
3205000000  -3.215424e-001  3.479910e-001 
3210000000  -2.527413e-001  4.059232e-001 
3215000000  -1.701292e-001  4.486162e-001 
3220000000  -8.513325e-002  4.819401e-001 
3225000000  5.119362e-003  5.047687e-001 
3230000000  9.919995e-002  5.149106e-001 
3235000000  1.943777e-001  5.105514e-001 
3240000000  2.853200e-001  4.893369e-001 
3245000000  3.697104e-001  4.554172e-001 
3250000000  4.452495e-001  4.099171e-001 
3255000000  5.118232e-001  3.575363e-001 
3260000000  5.682651e-001  3.004624e-001 
3265000000  6.159732e-001  2.393257e-001 
3270000000  6.539783e-001  1.752984e-001 
3275000000  6.826162e-001  1.104903e-001 
3280000000  7.025594e-001  4.697095e-002 
3285000000  7.148849e-001  -1.490616e-002 
3290000000  7.205499e-001  -7.399189e-002 
3295000000  7.214853e-001  -1.304017e-001 
3300000000  7.172067e-001  -1.848504e-001 
3305000000  7.075926e-001  -2.336246e-001 
3310000000  6.946103e-001  -2.790595e-001 
3315000000  6.787238e-001  -3.208656e-001 
3320000000  6.600620e-001  -3.585753e-001 
3325000000  6.398220e-001  -3.922658e-001 
3330000000  6.176462e-001  -4.217054e-001 
3335000000  5.945790e-001  -4.465268e-001 
3340000000  5.709779e-001  -4.666879e-001 
3345000000  5.479630e-001  -4.817971e-001 
3350000000  5.263730e-001  -4.914380e-001 
3355000000  5.088896e-001  -4.963161e-001 
3360000000  4.968779e-001  -4.982620e-001 
3365000000  4.910657e-001  -4.997614e-001 
3370000000  4.907032e-001  -5.035876e-001 
3375000000  4.939421e-001  -5.112837e-001 
3380000000  4.985377e-001  -5.245578e-001 
3385000000  5.017716e-001  -5.424814e-001 
3390000000  5.015267e-001  -5.639719e-001 
3395000000  4.984131e-001  -5.862725e-001 
3400000000  4.912956e-001  -6.094021e-001 
3405000000  4.825334e-001  -6.308154e-001 
3410000000  4.710778e-001  -6.512042e-001 
3415000000  4.586239e-001  -6.699726e-001 
3420000000  4.451256e-001  -6.876950e-001 
3425000000  4.311771e-001  -7.040441e-001 
3430000000  4.165132e-001  -7.193387e-001 
3435000000  4.015569e-001  -7.334773e-001 
3440000000  3.866569e-001  -7.461439e-001 
3445000000  3.710588e-001  -7.587310e-001 
3450000000  3.556333e-001  -7.702068e-001 
3455000000  3.402938e-001  -7.810239e-001 
3460000000  3.248916e-001  -7.913238e-001 
3465000000  3.093816e-001  -8.008731e-001 
3470000000  2.936928e-001  -8.097813e-001 
3475000000  2.781868e-001  -8.182983e-001 
3480000000  2.621181e-001  -8.267100e-001 
3485000000  2.471823e-001  -8.337587e-001 
3490000000  2.315712e-001  -8.410051e-001 
3495000000  2.161116e-001  -8.476528e-001 
3500000000  2.006422e-001  -8.539426e-001 
3505000000  1.849431e-001  -8.599563e-001 
3510000000  1.703775e-001  -8.651565e-001 
3515000000  1.556946e-001  -8.705623e-001 
3520000000  1.414221e-001  -8.755554e-001 
3525000000  1.264778e-001  -8.806972e-001 
3530000000  1.118563e-001  -8.857195e-001 
3535000000  9.712415e-002  -8.907267e-001 
3540000000  8.217812e-002  -8.955022e-001 
3545000000  6.713414e-002  -8.997999e-001 
3550000000  5.183633e-002  -9.042627e-001 
3555000000  3.643356e-002  -9.077316e-001 
3560000000  2.113501e-002  -9.111546e-001 
3565000000  5.175346e-003  -9.143857e-001 
3570000000  -9.685613e-003  -9.168063e-001 
3575000000  -2.494154e-002  -9.193133e-001 
3580000000  -4.018648e-002  -9.214948e-001 
3585000000  -5.566082e-002  -9.234251e-001 
3590000000  -7.076699e-002  -9.249278e-001 
3595000000  -8.608222e-002  -9.264349e-001 
3600000000  -1.012568e-001  -9.274629e-001 
3605000000  -1.160091e-001  -9.279583e-001 
3610000000  -1.310315e-001  -9.283794e-001 
3615000000  -1.466521e-001  -9.286278e-001 
3620000000  -1.623006e-001  -9.284428e-001 
3625000000  -1.770224e-001  -9.278287e-001 
3630000000  -1.915024e-001  -9.273033e-001 
3635000000  -2.065457e-001  -9.262043e-001 
3640000000  -2.216928e-001  -9.250826e-001 
3645000000  -2.366243e-001  -9.234802e-001 
3650000000  -2.524762e-001  -9.217692e-001 
3655000000  -2.668561e-001  -9.193120e-001 
3660000000  -2.818958e-001  -9.171566e-001 
3665000000  -2.971089e-001  -9.143820e-001 
3670000000  -3.122680e-001  -9.114943e-001 
3675000000  -3.281687e-001  -9.083238e-001 
3680000000  -3.432925e-001  -9.047921e-001 
3685000000  -3.580197e-001  -9.010471e-001 
3690000000  -3.732674e-001  -8.971247e-001 
3695000000  -3.884877e-001  -8.928478e-001 
3700000000  -4.039381e-001  -8.883244e-001 
3705000000  -4.194946e-001  -8.834751e-001 
3710000000  -4.351354e-001  -8.781574e-001 
3715000000  -4.508325e-001  -8.724852e-001 
3720000000  -4.662535e-001  -8.666157e-001 
3725000000  -4.822252e-001  -8.593032e-001 
3730000000  -4.989659e-001  -8.522904e-001 
3735000000  -5.139084e-001  -8.448199e-001 
3740000000  -5.294458e-001  -8.367269e-001 
3745000000  -5.449369e-001  -8.287765e-001 
3750000000  -5.608092e-001  -8.204097e-001 
3755000000  -5.765976e-001  -8.112419e-001 
3760000000  -5.920721e-001  -8.016664e-001 
3765000000  -6.077365e-001  -7.917030e-001 
3770000000  -6.231083e-001  -7.813202e-001 
3775000000  -6.381557e-001  -7.704101e-001 
3780000000  -6.531447e-001  -7.589329e-001 
3785000000  -6.675098e-001  -7.470574e-001 
3790000000  -6.816016e-001  -7.357383e-001 
3795000000  -6.963996e-001  -7.228490e-001 
3800000000  -7.099655e-001  -7.096399e-001 
3805000000  -7.236562e-001  -6.963291e-001 
3810000000  -7.365447e-001  -6.825978e-001 
3815000000  -7.489645e-001  -6.690706e-001 
3820000000  -7.618527e-001  -6.540038e-001 
3825000000  -7.736033e-001  -6.395093e-001 
3830000000  -7.859322e-001  -6.237013e-001 
3835000000  -7.978391e-001  -6.079620e-001 
3840000000  -8.094969e-001  -5.918083e-001 
3845000000  -8.198014e-001  -5.748839e-001 
3850000000  -8.311561e-001  -5.575120e-001 
3855000000  -8.416985e-001  -5.402092e-001 
3860000000  -8.509587e-001  -5.227296e-001 
3865000000  -8.603262e-001  -5.045018e-001 
3870000000  -8.692828e-001  -4.863120e-001 
3875000000  -8.788993e-001  -4.660819e-001 
3880000000  -8.866239e-001  -4.468953e-001 
3885000000  -8.945110e-001  -4.261935e-001 
3890000000  -9.019148e-001  -4.059629e-001 
3895000000  -9.088479e-001  -3.853026e-001 
3900000000  -9.150245e-001  -3.627959e-001 
3905000000  -9.199810e-001  -3.404180e-001 
3910000000  -9.249235e-001  -3.175901e-001 
3915000000  -9.300802e-001  -2.936312e-001 
3920000000  -9.339073e-001  -2.684822e-001 
3925000000  -9.362475e-001  -2.443868e-001 
3930000000  -9.381190e-001  -2.186512e-001 
3935000000  -9.387107e-001  -1.928069e-001 
3940000000  -9.392880e-001  -1.659611e-001 
3945000000  -9.384139e-001  -1.404134e-001 
3950000000  -9.377351e-001  -1.142906e-001 
3955000000  -9.358968e-001  -8.633086e-002 
3960000000  -9.337028e-001  -5.750757e-002 
3965000000  -9.301012e-001  -2.898889e-002 
3970000000  -9.246871e-001  1.034887e-003 
3975000000  -9.181920e-001  3.229989e-002 
3980000000  -9.093829e-001  6.331348e-002 
3985000000  -8.990969e-001  9.568820e-002 
3990000000  -8.869062e-001  1.286708e-001 
3995000000  -8.715296e-001  1.605045e-001 
4000000000  -8.539975e-001  1.934028e-001 
4005000000  -8.340403e-001  2.256157e-001 
4010000000  -8.106012e-001  2.584953e-001 
4015000000  -7.844025e-001  2.898223e-001 
4020000000  -7.552997e-001  3.198831e-001 
4025000000  -7.232689e-001  3.495621e-001 
4030000000  -6.878306e-001  3.779067e-001 
4035000000  -6.497003e-001  4.033118e-001 
4040000000  -6.077204e-001  4.267330e-001 
4045000000  -5.625382e-001  4.469563e-001 
4050000000  -5.143958e-001  4.639712e-001 
4055000000  -4.636654e-001  4.764450e-001 
4060000000  -4.104016e-001  4.844115e-001 
4065000000  -3.551584e-001  4.876468e-001 
4070000000  -2.983034e-001  4.853503e-001 
4075000000  -2.401546e-001  4.771160e-001 
4080000000  -1.819979e-001  4.621874e-001 
4085000000  -1.243142e-001  4.407893e-001 
4090000000  -6.855842e-002  4.125380e-001 
4095000000  -1.545996e-002  3.777821e-001 
4100000000  3.459781e-002  3.364896e-001 
4105000000  7.900773e-002  2.890792e-001 
4110000000  1.177036e-001  2.365367e-001 
4115000000  1.497808e-001  1.799006e-001 
4120000000  1.749884e-001  1.201530e-001 
4125000000  1.925637e-001  5.816140e-002 
4130000000  2.023248e-001  -4.794534e-003 
4135000000  2.045270e-001  -6.692321e-002 
4140000000  1.997934e-001  -1.277698e-001 
4145000000  1.885872e-001  -1.863358e-001 
4150000000  1.710541e-001  -2.424911e-001 
4155000000  1.477420e-001  -2.951226e-001 
4160000000  1.198635e-001  -3.432473e-001 
4165000000  8.719380e-002  -3.869733e-001 
4170000000  5.255217e-002  -4.253552e-001 
4175000000  1.498363e-002  -4.591877e-001 
4180000000  -2.457460e-002  -4.881850e-001 
4185000000  -6.542591e-002  -5.125674e-001 
4190000000  -1.066663e-001  -5.321521e-001 
4195000000  -1.469084e-001  -5.473666e-001 
4200000000  -1.879239e-001  -5.583366e-001 
4205000000  -2.263576e-001  -5.665242e-001 
4210000000  -2.645704e-001  -5.716154e-001 
4215000000  -3.025724e-001  -5.740839e-001 
4220000000  -3.397417e-001  -5.736158e-001 
4225000000  -3.748936e-001  -5.712960e-001 
4230000000  -4.091443e-001  -5.664518e-001 
4235000000  -4.425329e-001  -5.587564e-001 
4240000000  -4.738042e-001  -5.497474e-001 
4245000000  -5.037165e-001  -5.392219e-001 
4250000000  -5.318589e-001  -5.274500e-001 
4255000000  -5.585428e-001  -5.141918e-001 
4260000000  -5.836753e-001  -5.000198e-001 
4265000000  -6.076087e-001  -4.852574e-001 
4270000000  -6.297057e-001  -4.700200e-001 
4275000000  -6.511633e-001  -4.533440e-001 
4280000000  -6.713020e-001  -4.363550e-001 
4285000000  -6.894232e-001  -4.186887e-001 
4290000000  -7.062362e-001  -4.007332e-001 
4295000000  -7.229150e-001  -3.823631e-001 
4300000000  -7.385442e-001  -3.635739e-001 
4305000000  -7.522846e-001  -3.439361e-001 
4310000000  -7.655935e-001  -3.243867e-001 
4315000000  -7.776405e-001  -3.038715e-001 
4320000000  -7.880580e-001  -2.833304e-001 
4325000000  -7.979757e-001  -2.632332e-001 
4330000000  -8.074979e-001  -2.419826e-001 
4335000000  -8.157087e-001  -2.210512e-001 
4340000000  -8.233755e-001  -1.993924e-001 
4345000000  -8.295419e-001  -1.784325e-001 
4350000000  -8.354866e-001  -1.563196e-001 
4355000000  -8.400809e-001  -1.350783e-001 
4360000000  -8.439392e-001  -1.133902e-001 
4365000000  -8.466855e-001  -9.145165e-002 
4370000000  -8.491454e-001  -6.968194e-002 
4375000000  -8.500009e-001  -4.937805e-002 
4380000000  -8.504522e-001  -2.683620e-002 
4385000000  -8.502392e-001  -5.992400e-003 
4390000000  -8.499742e-001  1.540987e-002 
4395000000  -8.483779e-001  3.814520e-002 
4400000000  -8.451247e-001  5.899262e-002 
4405000000  -8.406994e-001  8.030380e-002 
4410000000  -8.368241e-001  1.018682e-001 
4415000000  -8.316824e-001  1.224010e-001 
4420000000  -8.254767e-001  1.422501e-001 
4425000000  -8.183175e-001  1.627983e-001 
4430000000  -8.102510e-001  1.823799e-001 
4435000000  -8.020722e-001  2.017734e-001 
4440000000  -7.920029e-001  2.201327e-001 
4445000000  -7.824620e-001  2.383779e-001 
4450000000  -7.708815e-001  2.559771e-001 
4455000000  -7.588066e-001  2.721662e-001 
4460000000  -7.460877e-001  2.883984e-001 
4465000000  -7.321303e-001  3.048581e-001 
4470000000  -7.166247e-001  3.197935e-001 
4475000000  -6.998301e-001  3.333752e-001 
4480000000  -6.822303e-001  3.457566e-001 
4485000000  -6.636082e-001  3.566917e-001 
4490000000  -6.435671e-001  3.662310e-001 
4495000000  -6.237130e-001  3.744972e-001 
4500000000  -6.029565e-001  3.806395e-001 
4505000000  -5.814983e-001  3.850964e-001 
4510000000  -5.591670e-001  3.880967e-001 
4515000000  -5.364389e-001  3.889488e-001 
4520000000  -5.133292e-001  3.865149e-001 
4525000000  -4.908136e-001  3.816277e-001 
4530000000  -4.701247e-001  3.736787e-001 
4535000000  -4.506221e-001  3.636024e-001 
4540000000  -4.327931e-001  3.512321e-001 
4545000000  -4.185642e-001  3.356081e-001 
4550000000  -4.071213e-001  3.199317e-001 
4555000000  -3.987875e-001  3.033737e-001 
4560000000  -3.937470e-001  2.853380e-001 
4565000000  -3.933375e-001  2.679442e-001 
4570000000  -3.975323e-001  2.520382e-001 
4575000000  -4.055505e-001  2.389945e-001 
4580000000  -4.157844e-001  2.301261e-001 
4585000000  -4.280860e-001  2.249835e-001 
4590000000  -4.417868e-001  2.232466e-001 
4595000000  -4.553238e-001  2.262820e-001 
4600000000  -4.683089e-001  2.336734e-001 
4605000000  -4.794687e-001  2.449004e-001 
4610000000  -4.888996e-001  2.588125e-001 
4615000000  -4.952701e-001  2.760571e-001 
4620000000  -4.988616e-001  2.952283e-001 
4625000000  -4.989273e-001  3.149644e-001 
4630000000  -4.961447e-001  3.348705e-001 
4635000000  -4.904352e-001  3.555182e-001 
4640000000  -4.822246e-001  3.748872e-001 
4645000000  -4.717022e-001  3.946494e-001 
4650000000  -4.592134e-001  4.127744e-001 
4655000000  -4.438236e-001  4.306841e-001 
4660000000  -4.262452e-001  4.468327e-001 
4665000000  -4.058329e-001  4.612199e-001 
4670000000  -3.831961e-001  4.739137e-001 
4675000000  -3.594035e-001  4.827113e-001 
4680000000  -3.339253e-001  4.890540e-001 
4685000000  -3.078658e-001  4.922149e-001 
4690000000  -2.816029e-001  4.924096e-001 
4695000000  -2.552386e-001  4.894734e-001 
4700000000  -2.284365e-001  4.834302e-001 
4705000000  -2.028877e-001  4.736056e-001 
4710000000  -1.780995e-001  4.610747e-001 
4715000000  -1.542914e-001  4.452238e-001 
4720000000  -1.323737e-001  4.258370e-001 
4725000000  -1.124727e-001  4.026171e-001 
4730000000  -9.634620e-002  3.758939e-001 
4735000000  -8.462507e-002  3.467783e-001 
4740000000  -7.694523e-002  3.162564e-001 
4745000000  -7.408591e-002  2.843204e-001 
4750000000  -7.622314e-002  2.519276e-001 
4755000000  -8.263962e-002  2.202012e-001 
4760000000  -9.517663e-002  1.888432e-001 
4765000000  -1.132472e-001  1.599094e-001 
4770000000  -1.367579e-001  1.355129e-001 
4775000000  -1.637885e-001  1.165535e-001 
4780000000  -1.930429e-001  1.033020e-001 
4785000000  -2.228138e-001  9.651681e-002 
4790000000  -2.515804e-001  9.475163e-002 
4795000000  -2.790158e-001  9.707367e-002 
4800000000  -3.050804e-001  1.035871e-001 
4805000000  -3.289686e-001  1.134073e-001 
4810000000  -3.503559e-001  1.265158e-001 
4815000000  -3.693808e-001  1.418048e-001 
4820000000  -3.864974e-001  1.593503e-001 
4825000000  -4.012074e-001  1.789744e-001 
4830000000  -4.129331e-001  2.007393e-001 
4835000000  -4.216162e-001  2.235556e-001 
4840000000  -4.266858e-001  2.475780e-001 
4845000000  -4.281346e-001  2.726838e-001 
4850000000  -4.263164e-001  2.968536e-001 
4855000000  -4.210205e-001  3.191967e-001 
4860000000  -4.126056e-001  3.407874e-001 
4865000000  -4.023232e-001  3.596553e-001 
4870000000  -3.908835e-001  3.756949e-001 
4875000000  -3.794712e-001  3.894113e-001 
4880000000  -3.691686e-001  4.021136e-001 
4885000000  -3.587400e-001  4.146170e-001 
4890000000  -3.487507e-001  4.271775e-001 
4895000000  -3.384651e-001  4.396846e-001 
4900000000  -3.269165e-001  4.530734e-001 
4905000000  -3.142121e-001  4.670381e-001 
4910000000  -3.002925e-001  4.805821e-001 
4915000000  -2.842400e-001  4.940054e-001 
4920000000  -2.666313e-001  5.069817e-001 
4925000000  -2.476517e-001  5.187025e-001 
4930000000  -2.258169e-001  5.297929e-001 
4935000000  -2.027359e-001  5.386995e-001 
4940000000  -1.783815e-001  5.459853e-001 
4945000000  -1.530219e-001  5.517687e-001 
4950000000  -1.257852e-001  5.548608e-001 
4955000000  -9.845692e-002  5.556570e-001 
4960000000  -7.058757e-002  5.546454e-001 
4965000000  -4.204340e-002  5.512885e-001 
4970000000  -1.344423e-002  5.456315e-001 
4975000000  1.506989e-002  5.378627e-001 
4980000000  4.368713e-002  5.282074e-001 
4985000000  7.266903e-002  5.161155e-001 
4990000000  1.010978e-001  5.013288e-001 
4995000000  1.283963e-001  4.842248e-001 
5000000000  1.550706e-001  4.646951e-001 
5005000000  1.803722e-001  4.428554e-001 
5010000000  2.044642e-001  4.186229e-001 
5015000000  2.267223e-001  3.921659e-001 
5020000000  2.471330e-001  3.638703e-001 
5025000000  2.654398e-001  3.334429e-001 
5030000000  2.814019e-001  3.012615e-001 
5035000000  2.945965e-001  2.669194e-001 
5040000000  3.045464e-001  2.316150e-001 
5045000000  3.120340e-001  1.948037e-001 
5050000000  3.161376e-001  1.575664e-001 
5055000000  3.171208e-001  1.191956e-001 
5060000000  3.144192e-001  8.023853e-002 
5065000000  3.076379e-001  4.161783e-002 
5070000000  2.978313e-001  3.196105e-003 
5075000000  2.841549e-001  -3.532884e-002 
5080000000  2.659351e-001  -7.219806e-002 
5085000000  2.439495e-001  -1.071259e-001 
5090000000  2.187256e-001  -1.398080e-001 
5095000000  1.903392e-001  -1.697839e-001 
5100000000  1.587820e-001  -1.971579e-001 
5105000000  1.253799e-001  -2.210397e-001 
5110000000  8.979825e-002  -2.421329e-001 
5115000000  5.238520e-002  -2.600177e-001 
5120000000  1.335975e-002  -2.745005e-001 
5125000000  -2.689702e-002  -2.852966e-001 
5130000000  -6.854919e-002  -2.920891e-001 
5135000000  -1.098857e-001  -2.947720e-001 
5140000000  -1.510576e-001  -2.935949e-001 
5145000000  -1.907753e-001  -2.889102e-001 
5150000000  -2.294796e-001  -2.812190e-001 
5155000000  -2.672135e-001  -2.706743e-001 
5160000000  -3.032008e-001  -2.569388e-001 
5165000000  -3.375195e-001  -2.408894e-001 
5170000000  -3.702020e-001  -2.218429e-001 
5175000000  -4.003574e-001  -2.003659e-001 
5180000000  -4.275716e-001  -1.776550e-001 
5185000000  -4.529215e-001  -1.526223e-001 
5190000000  -4.756890e-001  -1.259884e-001 
5195000000  -4.955936e-001  -9.893262e-002 
5200000000  -5.137287e-001  -7.034561e-002 
5205000000  -5.289385e-001  -4.066340e-002 
5210000000  -5.412111e-001  -1.074611e-002 
5215000000  -5.514787e-001  1.973595e-002 
5220000000  -5.594456e-001  5.063907e-002 
5225000000  -5.644513e-001  8.123550e-002 
5230000000  -5.678325e-001  1.117639e-001 
5235000000  -5.688916e-001  1.416555e-001 
5240000000  -5.678251e-001  1.725249e-001 
5245000000  -5.650129e-001  2.027332e-001 
5250000000  -5.598769e-001  2.327386e-001 
5255000000  -5.523478e-001  2.621087e-001 
5260000000  -5.427932e-001  2.908546e-001 
5265000000  -5.314139e-001  3.186060e-001 
5270000000  -5.180280e-001  3.457737e-001 
5275000000  -5.032395e-001  3.717865e-001 
5280000000  -4.861729e-001  3.970846e-001 
5285000000  -4.673553e-001  4.210013e-001 
5290000000  -4.470566e-001  4.435554e-001 
5295000000  -4.252668e-001  4.646099e-001 
5300000000  -4.020666e-001  4.842636e-001 
5305000000  -3.776534e-001  5.022622e-001 
5310000000  -3.519410e-001  5.185037e-001 
5315000000  -3.251074e-001  5.328187e-001 
5320000000  -2.971634e-001  5.451834e-001 
5325000000  -2.685175e-001  5.552340e-001 
5330000000  -2.390452e-001  5.634067e-001 
5335000000  -2.091096e-001  5.686335e-001 
5340000000  -1.788059e-001  5.715831e-001 
5345000000  -1.480305e-001  5.720519e-001 
5350000000  -1.172201e-001  5.698276e-001 
5355000000  -8.668151e-002  5.649232e-001 
5360000000  -5.637227e-002  5.573611e-001 
5365000000  -2.649548e-002  5.469994e-001 
5370000000  2.714169e-003  5.336192e-001 
5375000000  3.101136e-002  5.172790e-001 
5380000000  5.808457e-002  4.977321e-001 
5385000000  8.333509e-002  4.752262e-001 
5390000000  1.060996e-001  4.497838e-001 
5395000000  1.266934e-001  4.215783e-001 
5400000000  1.443797e-001  3.906221e-001 
5405000000  1.587043e-001  3.570644e-001 
5410000000  1.687477e-001  3.216433e-001 
5415000000  1.753336e-001  2.842462e-001 
5420000000  1.765328e-001  2.455728e-001 
5425000000  1.726158e-001  2.068833e-001 
5430000000  1.638364e-001  1.686321e-001 
5435000000  1.500626e-001  1.314724e-001 
5440000000  1.312542e-001  9.582148e-002 
5445000000  1.072009e-001  6.279898e-002 
5450000000  7.831466e-002  3.394271e-002 
5455000000  4.559306e-002  9.805394e-003 
5460000000  1.007438e-002  -9.199217e-003 
5465000000  -2.776306e-002  -2.269647e-002 
5470000000  -6.682421e-002  -3.018388e-002 
5475000000  -1.062421e-001  -3.173238e-002 
5480000000  -1.451809e-001  -2.749633e-002 
5485000000  -1.829868e-001  -1.726036e-002 
5490000000  -2.182632e-001  -1.577755e-003 
5495000000  -2.503853e-001  1.886197e-002 
5500000000  -2.790376e-001  4.382863e-002 
5505000000  -3.035413e-001  7.223847e-002 
5510000000  -3.236530e-001  1.033099e-001 
5515000000  -3.393543e-001  1.363855e-001 
5520000000  -3.506474e-001  1.705610e-001 
5525000000  -3.573713e-001  2.064141e-001 
5530000000  -3.595566e-001  2.416650e-001 
5535000000  -3.575341e-001  2.765915e-001 
5540000000  -3.514576e-001  3.104900e-001 
5545000000  -3.419976e-001  3.428977e-001 
5550000000  -3.292849e-001  3.734195e-001 
5555000000  -3.137075e-001  4.022648e-001 
5560000000  -2.956895e-001  4.290088e-001 
5565000000  -2.751169e-001  4.534135e-001 
5570000000  -2.526226e-001  4.751535e-001 
5575000000  -2.284451e-001  4.944763e-001 
5580000000  -2.030529e-001  5.109951e-001 
5585000000  -1.763972e-001  5.251125e-001 
5590000000  -1.493886e-001  5.361831e-001 
5595000000  -1.216531e-001  5.447842e-001 
5600000000  -9.319071e-002  5.508596e-001 
5605000000  -6.519316e-002  5.538987e-001 
5610000000  -3.672265e-002  5.546805e-001 
5615000000  -8.424053e-003  5.523669e-001 
5620000000  1.959497e-002  5.476118e-001 
5625000000  4.715059e-002  5.399288e-001 
5630000000  7.367216e-002  5.298135e-001 
5635000000  9.957013e-002  5.168754e-001 
5640000000  1.240253e-001  5.015395e-001 
5645000000  1.475417e-001  4.839586e-001 
5650000000  1.692121e-001  4.642200e-001 
5655000000  1.896619e-001  4.419389e-001 
5660000000  2.081621e-001  4.175261e-001 
5665000000  2.242311e-001  3.912498e-001 
5670000000  2.380455e-001  3.634592e-001 
5675000000  2.493639e-001  3.342735e-001 
5680000000  2.580098e-001  3.039213e-001 
5685000000  2.637980e-001  2.728995e-001 
5690000000  2.670342e-001  2.413463e-001 
5695000000  2.671553e-001  2.091092e-001 
5700000000  2.639417e-001  1.770063e-001 
5705000000  2.576548e-001  1.457826e-001 
5710000000  2.485247e-001  1.151743e-001 
5715000000  2.366104e-001  8.549009e-002 
5720000000  2.215076e-001  5.723513e-002 
5725000000  2.035812e-001  3.069766e-002 
5730000000  1.830248e-001  6.729831e-003 
5735000000  1.605073e-001  -1.457321e-002 
5740000000  1.359512e-001  -3.328406e-002 
5745000000  1.101278e-001  -4.908264e-002 
5750000000  8.276695e-002  -6.202706e-002 
5755000000  5.442172e-002  -7.123467e-002 
5760000000  2.613860e-002  -7.718511e-002 
5765000000  -2.180369e-003  -8.021862e-002 
5770000000  -3.034143e-002  -8.007076e-002 
5775000000  -5.769338e-002  -7.684264e-002 
5780000000  -8.399536e-002  -7.118713e-002 
5785000000  -1.094640e-001  -6.314917e-002 
5790000000  -1.339052e-001  -5.274836e-002 
5795000000  -1.567089e-001  -3.965251e-002 
5800000000  -1.772221e-001  -2.515926e-002 
5805000000  -1.965702e-001  -9.428184e-003 
5810000000  -2.137435e-001  8.321716e-003 
5815000000  -2.282047e-001  2.660352e-002 
5820000000  -2.403702e-001  4.475839e-002 
5825000000  -2.505015e-001  6.255155e-002 
5830000000  -2.596389e-001  7.854421e-002 
5835000000  -2.678703e-001  9.491979e-002 
5840000000  -2.755999e-001  1.103006e-001 
5845000000  -2.833221e-001  1.256345e-001 
5850000000  -2.903351e-001  1.412277e-001 
5855000000  -2.964768e-001  1.565517e-001 
5860000000  -3.024314e-001  1.716615e-001 
5865000000  -3.079960e-001  1.869059e-001 
5870000000  -3.127657e-001  2.020408e-001 
5875000000  -3.176925e-001  2.165633e-001 
5880000000  -3.228879e-001  2.316455e-001 
5885000000  -3.281725e-001  2.479203e-001 
5890000000  -3.321614e-001  2.652246e-001 
5895000000  -3.348708e-001  2.829644e-001 
5900000000  -3.367796e-001  3.006387e-001 
5905000000  -3.380518e-001  3.183323e-001 
5910000000  -3.382972e-001  3.374611e-001 
5915000000  -3.367966e-001  3.567436e-001 
5920000000  -3.338156e-001  3.757804e-001 
5925000000  -3.288161e-001  3.957483e-001 
5930000000  -3.223126e-001  4.142587e-001 
5935000000  -3.137929e-001  4.330272e-001 
5940000000  -3.043117e-001  4.508246e-001 
5945000000  -2.932240e-001  4.678431e-001 
5950000000  -2.809699e-001  4.839746e-001 
5955000000  -2.680803e-001  4.987521e-001 
5960000000  -2.546264e-001  5.132427e-001 
5965000000  -2.394548e-001  5.272740e-001 
5970000000  -2.239912e-001  5.399258e-001 
5975000000  -2.081187e-001  5.520992e-001 
5980000000  -1.911796e-001  5.639741e-001 
5985000000  -1.735712e-001  5.744724e-001 
5990000000  -1.552164e-001  5.840507e-001 
5995000000  -1.359495e-001  5.921842e-001 
6000000000  -1.168968e-001  5.987685e-001 
