!Agilent Technologies,E8364B,MY43040633,A.07.50.37
!Agilent E8364B: A.07.50.37
!Date: Tuesday, December 16, 2025 17:17:11
!Correction: S11(Full 1 Port(1)) 
!S1P File: Measurement: S11:
# Hz S  RI   R 50
1000000000  5.846742e-001  -1.908465e-001 
1005000000  6.060743e-001  -1.950513e-001 
1010000000  6.237758e-001  -1.994724e-001 
1015000000  6.434072e-001  -2.067588e-001 
1020000000  6.641048e-001  -2.168360e-001 
1025000000  6.832272e-001  -2.352896e-001 
1030000000  6.928773e-001  -2.570762e-001 
1035000000  7.003542e-001  -2.767094e-001 
1040000000  7.039576e-001  -2.997628e-001 
1045000000  7.003539e-001  -3.198474e-001 
1050000000  6.928725e-001  -3.369927e-001 
1055000000  6.851529e-001  -3.486714e-001 
1060000000  6.770005e-001  -3.592486e-001 
1065000000  6.691032e-001  -3.656867e-001 
1070000000  6.613011e-001  -3.721541e-001 
1075000000  6.505150e-001  -3.753991e-001 
1080000000  6.418060e-001  -3.700012e-001 
1085000000  6.416950e-001  -3.629497e-001 
1090000000  6.455726e-001  -3.583798e-001 
1095000000  6.513236e-001  -3.541807e-001 
1100000000  6.619092e-001  -3.543685e-001 
1105000000  6.732065e-001  -3.594195e-001 
1110000000  6.789680e-001  -3.674444e-001 
1115000000  6.886911e-001  -3.716237e-001 
1120000000  6.999220e-001  -3.834562e-001 
1125000000  7.062017e-001  -3.984742e-001 
1130000000  7.084752e-001  -4.147508e-001 
1135000000  7.063124e-001  -4.283423e-001 
1140000000  7.051370e-001  -4.398123e-001 
1145000000  7.029662e-001  -4.509120e-001 
1150000000  6.997001e-001  -4.620153e-001 
1155000000  6.949917e-001  -4.718831e-001 
1160000000  6.889943e-001  -4.808667e-001 
1165000000  6.832724e-001  -4.869265e-001 
1170000000  6.783115e-001  -4.920329e-001 
1175000000  6.749896e-001  -4.954895e-001 
1180000000  6.727961e-001  -5.003571e-001 
1185000000  6.707546e-001  -5.044681e-001 
1190000000  6.694577e-001  -5.084583e-001 
1195000000  6.690155e-001  -5.132992e-001 
1200000000  6.678993e-001  -5.191635e-001 
1205000000  6.662750e-001  -5.231361e-001 
1210000000  6.678541e-001  -5.272313e-001 
1215000000  6.702382e-001  -5.346425e-001 
1220000000  6.692691e-001  -5.444776e-001 
1225000000  6.689786e-001  -5.528761e-001 
1230000000  6.663218e-001  -5.620549e-001 
1235000000  6.628993e-001  -5.698193e-001 
1240000000  6.593183e-001  -5.776218e-001 
1245000000  6.560342e-001  -5.852609e-001 
1250000000  6.526666e-001  -5.916233e-001 
1255000000  6.493772e-001  -5.985497e-001 
1260000000  6.455457e-001  -6.061896e-001 
1265000000  6.421859e-001  -6.132167e-001 
1270000000  6.386744e-001  -6.214753e-001 
1275000000  6.333496e-001  -6.304621e-001 
1280000000  6.274540e-001  -6.368554e-001 
1285000000  6.212556e-001  -6.436466e-001 
1290000000  6.142397e-001  -6.492226e-001 
1295000000  6.077328e-001  -6.528809e-001 
1300000000  6.015201e-001  -6.570097e-001 
1305000000  5.967960e-001  -6.595634e-001 
1310000000  5.931502e-001  -6.610715e-001 
1315000000  5.913182e-001  -6.648059e-001 
1320000000  5.892313e-001  -6.699322e-001 
1325000000  5.868547e-001  -6.752521e-001 
1330000000  5.825351e-001  -6.813427e-001 
1335000000  5.796459e-001  -6.862179e-001 
1340000000  5.758877e-001  -6.919442e-001 
1345000000  5.729852e-001  -6.964267e-001 
1350000000  5.697511e-001  -7.017843e-001 
1355000000  5.672283e-001  -7.077497e-001 
1360000000  5.635469e-001  -7.140064e-001 
1365000000  5.601462e-001  -7.201336e-001 
1370000000  5.556830e-001  -7.264510e-001 
1375000000  5.517275e-001  -7.328857e-001 
1380000000  5.461130e-001  -7.400938e-001 
1385000000  5.407447e-001  -7.458157e-001 
1390000000  5.364524e-001  -7.505713e-001 
1395000000  5.312003e-001  -7.566982e-001 
1400000000  5.249044e-001  -7.624221e-001 
1405000000  5.191050e-001  -7.675679e-001 
1410000000  5.134802e-001  -7.720429e-001 
1415000000  5.081725e-001  -7.766345e-001 
1420000000  5.032080e-001  -7.809603e-001 
1425000000  4.976500e-001  -7.857686e-001 
1430000000  4.914440e-001  -7.903721e-001 
1435000000  4.863654e-001  -7.947437e-001 
1440000000  4.808742e-001  -7.998435e-001 
1445000000  4.764850e-001  -8.046240e-001 
1450000000  4.711575e-001  -8.100274e-001 
1455000000  4.653189e-001  -8.158413e-001 
1460000000  4.586702e-001  -8.207538e-001 
1465000000  4.516451e-001  -8.256480e-001 
1470000000  4.443384e-001  -8.301445e-001 
1475000000  4.376236e-001  -8.348346e-001 
1480000000  4.301813e-001  -8.386503e-001 
1485000000  4.246469e-001  -8.423304e-001 
1490000000  4.174493e-001  -8.469644e-001 
1495000000  4.100955e-001  -8.511983e-001 
1500000000  4.029966e-001  -8.549021e-001 
1505000000  3.970699e-001  -8.581325e-001 
1510000000  3.893833e-001  -8.622770e-001 
1515000000  3.815862e-001  -8.659253e-001 
1520000000  3.743604e-001  -8.694561e-001 
1525000000  3.678157e-001  -8.720981e-001 
1530000000  3.599083e-001  -8.757693e-001 
1535000000  3.523585e-001  -8.790622e-001 
1540000000  3.441197e-001  -8.816360e-001 
1545000000  3.366402e-001  -8.837866e-001 
1550000000  3.288629e-001  -8.864300e-001 
1555000000  3.216477e-001  -8.884059e-001 
1560000000  3.145355e-001  -8.902038e-001 
1565000000  3.084229e-001  -8.917639e-001 
1570000000  3.019887e-001  -8.936310e-001 
1575000000  2.959149e-001  -8.957923e-001 
1580000000  2.895011e-001  -8.990253e-001 
1585000000  2.825692e-001  -9.017969e-001 
1590000000  2.757252e-001  -9.045280e-001 
1595000000  2.672442e-001  -9.066190e-001 
1600000000  2.589892e-001  -9.089606e-001 
1605000000  2.528308e-001  -9.102809e-001 
1610000000  2.452276e-001  -9.120240e-001 
1615000000  2.373388e-001  -9.138457e-001 
1620000000  2.283557e-001  -9.155911e-001 
1625000000  2.209720e-001  -9.163171e-001 
1630000000  2.130856e-001  -9.174782e-001 
1635000000  2.051519e-001  -9.186769e-001 
1640000000  1.976236e-001  -9.202136e-001 
1645000000  1.895525e-001  -9.204894e-001 
1650000000  1.811489e-001  -9.213197e-001 
1655000000  1.724472e-001  -9.219435e-001 
1660000000  1.637493e-001  -9.217325e-001 
1665000000  1.553106e-001  -9.215286e-001 
1670000000  1.485282e-001  -9.210828e-001 
1675000000  1.399929e-001  -9.213326e-001 
1680000000  1.322658e-001  -9.204574e-001 
1685000000  1.229761e-001  -9.197472e-001 
1690000000  1.151613e-001  -9.191288e-001 
1695000000  1.069061e-001  -9.182665e-001 
1700000000  9.882399e-002  -9.170225e-001 
1705000000  9.078418e-002  -9.151865e-001 
1710000000  8.325514e-002  -9.141502e-001 
1715000000  7.501902e-002  -9.131609e-001 
1720000000  6.660680e-002  -9.121209e-001 
1725000000  5.781491e-002  -9.107732e-001 
1730000000  5.047852e-002  -9.089804e-001 
1735000000  4.189817e-002  -9.076862e-001 
1740000000  3.423604e-002  -9.061765e-001 
1745000000  2.495320e-002  -9.047198e-001 
1750000000  1.733070e-002  -9.022022e-001 
1755000000  8.487450e-003  -8.995064e-001 
1760000000  -1.213744e-005  -8.966220e-001 
1765000000  -8.348373e-003  -8.930042e-001 
1770000000  -1.607120e-002  -8.896079e-001 
1775000000  -2.377709e-002  -8.861261e-001 
1780000000  -3.153422e-002  -8.822550e-001 
1785000000  -3.838173e-002  -8.784105e-001 
1790000000  -4.593264e-002  -8.751575e-001 
1795000000  -5.365327e-002  -8.706467e-001 
1800000000  -6.095214e-002  -8.660583e-001 
1805000000  -6.781626e-002  -8.608425e-001 
1810000000  -7.442778e-002  -8.559678e-001 
1815000000  -8.038919e-002  -8.518408e-001 
1820000000  -8.756796e-002  -8.465282e-001 
1825000000  -9.403928e-002  -8.406091e-001 
1830000000  -1.000584e-001  -8.345769e-001 
1835000000  -1.055071e-001  -8.282610e-001 
1840000000  -1.110341e-001  -8.216148e-001 
1845000000  -1.153792e-001  -8.148607e-001 
1850000000  -1.198988e-001  -8.088254e-001 
1855000000  -1.243079e-001  -8.014582e-001 
1860000000  -1.273364e-001  -7.941124e-001 
1865000000  -1.304003e-001  -7.876420e-001 
1870000000  -1.331087e-001  -7.803894e-001 
1875000000  -1.353039e-001  -7.729122e-001 
1880000000  -1.351929e-001  -7.664729e-001 
1885000000  -1.356822e-001  -7.613969e-001 
1890000000  -1.366538e-001  -7.569548e-001 
1895000000  -1.375876e-001  -7.526361e-001 
1900000000  -1.392784e-001  -7.490133e-001 
1905000000  -1.420446e-001  -7.450589e-001 
1910000000  -1.446920e-001  -7.401523e-001 
1915000000  -1.467975e-001  -7.357817e-001 
1920000000  -1.487419e-001  -7.305667e-001 
1925000000  -1.506457e-001  -7.255303e-001 
1930000000  -1.524178e-001  -7.207742e-001 
1935000000  -1.539998e-001  -7.147706e-001 
1940000000  -1.547466e-001  -7.104245e-001 
1945000000  -1.575369e-001  -7.064824e-001 
1950000000  -1.606617e-001  -6.998433e-001 
1955000000  -1.607566e-001  -6.913108e-001 
1960000000  -1.587625e-001  -6.841033e-001 
1965000000  -1.558656e-001  -6.792904e-001 
1970000000  -1.549746e-001  -6.760190e-001 
1975000000  -1.533114e-001  -6.713963e-001 
1980000000  -1.518961e-001  -6.679813e-001 
1985000000  -1.507409e-001  -6.645765e-001 
1990000000  -1.502022e-001  -6.608533e-001 
1995000000  -1.491147e-001  -6.550972e-001 
2000000000  -1.448744e-001  -6.491486e-001 
2005000000  -1.393506e-001  -6.470888e-001 
2010000000  -1.355235e-001  -6.455994e-001 
2015000000  -1.325434e-001  -6.444799e-001 
2020000000  -1.289085e-001  -6.412564e-001 
2025000000  -1.222971e-001  -6.399872e-001 
2030000000  -1.165650e-001  -6.418630e-001 
2035000000  -1.125932e-001  -6.436158e-001 
2040000000  -1.080970e-001  -6.456847e-001 
2045000000  -1.040930e-001  -6.483722e-001 
2050000000  -1.002513e-001  -6.519234e-001 
2055000000  -9.697790e-002  -6.565157e-001 
2060000000  -9.497043e-002  -6.609213e-001 
2065000000  -9.338495e-002  -6.660874e-001 
2070000000  -9.238501e-002  -6.712174e-001 
2075000000  -9.220597e-002  -6.764662e-001 
2080000000  -9.236302e-002  -6.819027e-001 
2085000000  -9.313644e-002  -6.876420e-001 
2090000000  -9.586027e-002  -6.937456e-001 
2095000000  -9.919378e-002  -6.986492e-001 
2100000000  -1.028878e-001  -7.024891e-001 
2105000000  -1.061120e-001  -7.057759e-001 
2110000000  -1.090367e-001  -7.096754e-001 
2115000000  -1.126696e-001  -7.136002e-001 
2120000000  -1.174200e-001  -7.173599e-001 
2125000000  -1.209702e-001  -7.210215e-001 
2130000000  -1.258885e-001  -7.248820e-001 
2135000000  -1.315243e-001  -7.280765e-001 
2140000000  -1.377115e-001  -7.306613e-001 
2145000000  -1.441006e-001  -7.322591e-001 
2150000000  -1.501514e-001  -7.330797e-001 
2155000000  -1.558967e-001  -7.334705e-001 
2160000000  -1.607512e-001  -7.335693e-001 
2165000000  -1.670677e-001  -7.344704e-001 
2170000000  -1.725640e-001  -7.334828e-001 
2175000000  -1.766112e-001  -7.328490e-001 
2180000000  -1.811038e-001  -7.338306e-001 
2185000000  -1.874046e-001  -7.350190e-001 
2190000000  -1.932825e-001  -7.342914e-001 
2195000000  -1.998792e-001  -7.328528e-001 
2200000000  -2.042488e-001  -7.305609e-001 
2205000000  -2.076897e-001  -7.288445e-001 
2210000000  -2.106355e-001  -7.280963e-001 
2215000000  -2.136563e-001  -7.283013e-001 
2220000000  -2.171791e-001  -7.293487e-001 
2225000000  -2.218483e-001  -7.306445e-001 
2230000000  -2.274892e-001  -7.314815e-001 
2235000000  -2.327425e-001  -7.309031e-001 
2240000000  -2.377597e-001  -7.308503e-001 
2245000000  -2.431335e-001  -7.305416e-001 
2250000000  -2.482830e-001  -7.300689e-001 
2255000000  -2.537754e-001  -7.287524e-001 
2260000000  -2.593104e-001  -7.271078e-001 
2265000000  -2.630684e-001  -7.255284e-001 
2270000000  -2.670090e-001  -7.250863e-001 
2275000000  -2.714614e-001  -7.249812e-001 
2280000000  -2.768762e-001  -7.239725e-001 
2285000000  -2.814183e-001  -7.219972e-001 
2290000000  -2.859245e-001  -7.208235e-001 
2295000000  -2.905333e-001  -7.189596e-001 
2300000000  -2.945864e-001  -7.170522e-001 
2305000000  -2.979223e-001  -7.152708e-001 
2310000000  -3.012991e-001  -7.144666e-001 
2315000000  -3.045709e-001  -7.142304e-001 
2320000000  -3.083848e-001  -7.142097e-001 
2325000000  -3.127353e-001  -7.149126e-001 
2330000000  -3.183391e-001  -7.151884e-001 
2335000000  -3.240854e-001  -7.148199e-001 
2340000000  -3.302363e-001  -7.138692e-001 
2345000000  -3.354132e-001  -7.119477e-001 
2350000000  -3.408395e-001  -7.109680e-001 
2355000000  -3.460084e-001  -7.099747e-001 
2360000000  -3.515076e-001  -7.096048e-001 
2365000000  -3.585088e-001  -7.089927e-001 
2370000000  -3.654230e-001  -7.068028e-001 
2375000000  -3.724625e-001  -7.047130e-001 
2380000000  -3.791599e-001  -7.020054e-001 
2385000000  -3.855181e-001  -6.996874e-001 
2390000000  -3.924968e-001  -6.967556e-001 
2395000000  -3.996647e-001  -6.934343e-001 
2400000000  -4.063711e-001  -6.891442e-001 
2405000000  -4.118584e-001  -6.844288e-001 
2410000000  -4.170133e-001  -6.813299e-001 
2415000000  -4.233642e-001  -6.778703e-001 
2420000000  -4.294068e-001  -6.734312e-001 
2425000000  -4.355521e-001  -6.687161e-001 
2430000000  -4.404253e-001  -6.634831e-001 
2435000000  -4.453477e-001  -6.590228e-001 
2440000000  -4.495611e-001  -6.537429e-001 
2445000000  -4.534691e-001  -6.500177e-001 
2450000000  -4.581999e-001  -6.454900e-001 
2455000000  -4.622672e-001  -6.410462e-001 
2460000000  -4.666805e-001  -6.368667e-001 
2465000000  -4.705151e-001  -6.323769e-001 
2470000000  -4.744065e-001  -6.283643e-001 
2475000000  -4.790898e-001  -6.243659e-001 
2480000000  -4.839752e-001  -6.198788e-001 
2485000000  -4.883482e-001  -6.150637e-001 
2490000000  -4.924889e-001  -6.101215e-001 
2495000000  -4.960555e-001  -6.053887e-001 
2500000000  -5.004188e-001  -6.009922e-001 
2505000000  -5.052297e-001  -5.962287e-001 
2510000000  -5.097435e-001  -5.907501e-001 
2515000000  -5.137610e-001  -5.850930e-001 
2520000000  -5.171576e-001  -5.795472e-001 
2525000000  -5.212923e-001  -5.743354e-001 
2530000000  -5.258473e-001  -5.683466e-001 
2535000000  -5.295660e-001  -5.620582e-001 
2540000000  -5.347524e-001  -5.551906e-001 
2545000000  -5.387121e-001  -5.471125e-001 
2550000000  -5.407969e-001  -5.391674e-001 
2555000000  -5.428141e-001  -5.324602e-001 
2560000000  -5.451717e-001  -5.251344e-001 
2565000000  -5.472767e-001  -5.180676e-001 
2570000000  -5.495367e-001  -5.105000e-001 
2575000000  -5.504230e-001  -5.038034e-001 
2580000000  -5.512806e-001  -4.971775e-001 
2585000000  -5.525532e-001  -4.913215e-001 
2590000000  -5.542557e-001  -4.852417e-001 
2595000000  -5.556257e-001  -4.786710e-001 
2600000000  -5.567188e-001  -4.730122e-001 
2605000000  -5.586921e-001  -4.680656e-001 
2610000000  -5.611550e-001  -4.625705e-001 
2615000000  -5.638784e-001  -4.571277e-001 
2620000000  -5.680280e-001  -4.513930e-001 
2625000000  -5.725468e-001  -4.432737e-001 
2630000000  -5.753297e-001  -4.343051e-001 
2635000000  -5.774685e-001  -4.252490e-001 
2640000000  -5.791453e-001  -4.154534e-001 
2645000000  -5.788825e-001  -4.057265e-001 
2650000000  -5.782770e-001  -3.963732e-001 
2655000000  -5.759787e-001  -3.874290e-001 
2660000000  -5.740430e-001  -3.797123e-001 
2665000000  -5.709543e-001  -3.719996e-001 
2670000000  -5.677156e-001  -3.657500e-001 
2675000000  -5.646866e-001  -3.603603e-001 
2680000000  -5.615560e-001  -3.553984e-001 
2685000000  -5.589093e-001  -3.519209e-001 
2690000000  -5.577396e-001  -3.489518e-001 
2695000000  -5.572235e-001  -3.444149e-001 
2700000000  -5.561829e-001  -3.408133e-001 
2705000000  -5.569935e-001  -3.368753e-001 
2710000000  -5.569763e-001  -3.309821e-001 
2715000000  -5.556052e-001  -3.252569e-001 
2720000000  -5.542872e-001  -3.207459e-001 
2725000000  -5.539476e-001  -3.150774e-001 
2730000000  -5.519084e-001  -3.087857e-001 
2735000000  -5.491737e-001  -3.037941e-001 
2740000000  -5.458308e-001  -2.991063e-001 
2745000000  -5.426331e-001  -2.955710e-001 
2750000000  -5.409046e-001  -2.920241e-001 
2755000000  -5.401628e-001  -2.876359e-001 
2760000000  -5.372437e-001  -2.825636e-001 
2765000000  -5.347098e-001  -2.793859e-001 
2770000000  -5.335393e-001  -2.756535e-001 
2775000000  -5.319427e-001  -2.714746e-001 
2780000000  -5.299447e-001  -2.660525e-001 
2785000000  -5.275260e-001  -2.620121e-001 
2790000000  -5.259646e-001  -2.572564e-001 
2795000000  -5.232461e-001  -2.509166e-001 
2800000000  -5.191944e-001  -2.441968e-001 
2805000000  -5.144483e-001  -2.385246e-001 
2810000000  -5.084467e-001  -2.335882e-001 
2815000000  -5.026823e-001  -2.317979e-001 
2820000000  -4.995033e-001  -2.283290e-001 
2825000000  -4.954175e-001  -2.258632e-001 
2830000000  -4.918576e-001  -2.224728e-001 
2835000000  -4.887491e-001  -2.186187e-001 
2840000000  -4.847109e-001  -2.142735e-001 
2845000000  -4.786496e-001  -2.101281e-001 
2850000000  -4.733911e-001  -2.073652e-001 
2855000000  -4.686653e-001  -2.045894e-001 
2860000000  -4.634589e-001  -2.023755e-001 
2865000000  -4.590035e-001  -2.005586e-001 
2870000000  -4.547936e-001  -1.977029e-001 
2875000000  -4.497994e-001  -1.947173e-001 
2880000000  -4.444522e-001  -1.922988e-001 
2885000000  -4.378253e-001  -1.913129e-001 
2890000000  -4.324253e-001  -1.894762e-001 
2895000000  -4.242415e-001  -1.896125e-001 
2900000000  -4.207109e-001  -1.912870e-001 
2905000000  -4.153898e-001  -1.905524e-001 
2910000000  -4.095393e-001  -1.916579e-001 
2915000000  -4.035777e-001  -1.935922e-001 
2920000000  -3.984679e-001  -1.974046e-001 
2925000000  -3.956797e-001  -2.011110e-001 
2930000000  -3.921326e-001  -2.031339e-001 
2935000000  -3.886348e-001  -2.078960e-001 
2940000000  -3.869080e-001  -2.130277e-001 
2945000000  -3.886569e-001  -2.183264e-001 
2950000000  -3.907620e-001  -2.196596e-001 
2955000000  -3.912026e-001  -2.207415e-001 
2960000000  -3.919765e-001  -2.209855e-001 
2965000000  -3.915013e-001  -2.216788e-001 
2970000000  -3.912250e-001  -2.224939e-001 
2975000000  -3.906364e-001  -2.235802e-001 
2980000000  -3.913248e-001  -2.239477e-001 
2985000000  -3.905342e-001  -2.236884e-001 
2990000000  -3.892976e-001  -2.240248e-001 
2995000000  -3.891256e-001  -2.252653e-001 
3000000000  -3.894389e-001  -2.261335e-001 
3005000000  -3.906350e-001  -2.255193e-001 
3010000000  -3.895017e-001  -2.240236e-001 
3015000000  -3.880048e-001  -2.232721e-001 
3020000000  -3.852622e-001  -2.238190e-001 
3025000000  -3.834348e-001  -2.267723e-001 
3030000000  -3.832972e-001  -2.285825e-001 
3035000000  -3.835707e-001  -2.298036e-001 
3040000000  -3.846343e-001  -2.302840e-001 
3045000000  -3.860109e-001  -2.286478e-001 
3050000000  -3.846273e-001  -2.264873e-001 
3055000000  -3.838429e-001  -2.257332e-001 
3060000000  -3.813113e-001  -2.231441e-001 
3065000000  -3.771273e-001  -2.234807e-001 
3070000000  -3.732238e-001  -2.250819e-001 
3075000000  -3.711612e-001  -2.274107e-001 
3080000000  -3.685260e-001  -2.306774e-001 
3085000000  -3.669724e-001  -2.345479e-001 
3090000000  -3.690850e-001  -2.386320e-001 
3095000000  -3.715537e-001  -2.399950e-001 
3100000000  -3.750782e-001  -2.399912e-001 
3105000000  -3.760000e-001  -2.378126e-001 
3110000000  -3.729343e-001  -2.392844e-001 
3115000000  -3.724880e-001  -2.440758e-001 
3120000000  -3.738737e-001  -2.472260e-001 
3125000000  -3.766320e-001  -2.494882e-001 
3130000000  -3.794391e-001  -2.510334e-001 
3135000000  -3.826143e-001  -2.510905e-001 
3140000000  -3.848896e-001  -2.506910e-001 
3145000000  -3.870993e-001  -2.531584e-001 
3150000000  -3.914717e-001  -2.552924e-001 
3155000000  -3.969686e-001  -2.567907e-001 
3160000000  -4.008906e-001  -2.577929e-001 
3165000000  -4.060881e-001  -2.590978e-001 
3170000000  -4.121754e-001  -2.591157e-001 
3175000000  -4.171098e-001  -2.582316e-001 
3180000000  -4.237659e-001  -2.573562e-001 
3185000000  -4.292974e-001  -2.533460e-001 
3190000000  -4.333883e-001  -2.497441e-001 
3195000000  -4.375956e-001  -2.466940e-001 
3200000000  -4.418674e-001  -2.430465e-001 
3205000000  -4.454221e-001  -2.405401e-001 
3210000000  -4.500290e-001  -2.367186e-001 
3215000000  -4.516521e-001  -2.292084e-001 
3220000000  -4.543860e-001  -2.261716e-001 
3225000000  -4.584737e-001  -2.241336e-001 
3230000000  -4.647802e-001  -2.237182e-001 
3235000000  -4.727665e-001  -2.195546e-001 
3240000000  -4.770230e-001  -2.118377e-001 
3245000000  -4.791132e-001  -2.042915e-001 
3250000000  -4.819368e-001  -1.960157e-001 
3255000000  -4.826724e-001  -1.882917e-001 
3260000000  -4.842553e-001  -1.815069e-001 
3265000000  -4.860422e-001  -1.723755e-001 
3270000000  -4.854978e-001  -1.616511e-001 
3275000000  -4.812202e-001  -1.517417e-001 
3280000000  -4.749192e-001  -1.444125e-001 
3285000000  -4.694245e-001  -1.398750e-001 
3290000000  -4.647315e-001  -1.349491e-001 
3295000000  -4.597179e-001  -1.313392e-001 
3300000000  -4.561042e-001  -1.291667e-001 
3305000000  -4.522113e-001  -1.252884e-001 
3310000000  -4.480247e-001  -1.182795e-001 
3315000000  -4.389056e-001  -1.130472e-001 
3320000000  -4.296214e-001  -1.126612e-001 
3325000000  -4.229876e-001  -1.143523e-001 
3330000000  -4.182851e-001  -1.157308e-001 
3335000000  -4.153131e-001  -1.177935e-001 
3340000000  -4.135699e-001  -1.170580e-001 
3345000000  -4.103070e-001  -1.163723e-001 
3350000000  -4.088876e-001  -1.163904e-001 
3355000000  -4.073036e-001  -1.141130e-001 
3360000000  -4.061055e-001  -1.116954e-001 
3365000000  -4.027788e-001  -1.073147e-001 
3370000000  -3.980986e-001  -1.045306e-001 
3375000000  -3.933279e-001  -1.027534e-001 
3380000000  -3.888086e-001  -1.007223e-001 
3385000000  -3.839040e-001  -1.001409e-001 
3390000000  -3.795596e-001  -9.963609e-002 
3395000000  -3.754275e-001  -9.917758e-002 
3400000000  -3.720195e-001  -9.864785e-002 
3405000000  -3.664742e-001  -1.000348e-001 
3410000000  -3.625356e-001  -1.010353e-001 
3415000000  -3.584244e-001  -1.032682e-001 
3420000000  -3.567643e-001  -1.056147e-001 
3425000000  -3.549383e-001  -1.083369e-001 
3430000000  -3.552165e-001  -1.099174e-001 
3435000000  -3.552439e-001  -1.094919e-001 
3440000000  -3.557380e-001  -1.090482e-001 
3445000000  -3.558932e-001  -1.061340e-001 
3450000000  -3.534369e-001  -1.018891e-001 
3455000000  -3.477731e-001  -1.004626e-001 
3460000000  -3.455450e-001  -1.005105e-001 
3465000000  -3.415161e-001  -9.874859e-002 
3470000000  -3.360507e-001  -9.973354e-002 
3475000000  -3.320934e-001  -1.017555e-001 
3480000000  -3.294290e-001  -1.042800e-001 
3485000000  -3.262162e-001  -1.054118e-001 
3490000000  -3.233315e-001  -1.084984e-001 
3495000000  -3.206413e-001  -1.102288e-001 
3500000000  -3.175041e-001  -1.132554e-001 
3505000000  -3.153264e-001  -1.163510e-001 
3510000000  -3.125528e-001  -1.187173e-001 
3515000000  -3.099423e-001  -1.222013e-001 
3520000000  -3.062457e-001  -1.266847e-001 
3525000000  -3.058998e-001  -1.333240e-001 
3530000000  -3.070596e-001  -1.370704e-001 
3535000000  -3.073733e-001  -1.387564e-001 
3540000000  -3.061717e-001  -1.428591e-001 
3545000000  -3.081215e-001  -1.457326e-001 
3550000000  -3.084375e-001  -1.453727e-001 
3555000000  -3.059343e-001  -1.464582e-001 
3560000000  -3.028430e-001  -1.476099e-001 
3565000000  -2.983260e-001  -1.512450e-001 
3570000000  -2.958645e-001  -1.574579e-001 
3575000000  -2.945547e-001  -1.634339e-001 
3580000000  -2.947472e-001  -1.704562e-001 
3585000000  -2.970293e-001  -1.767521e-001 
3590000000  -3.013335e-001  -1.810075e-001 
3595000000  -3.035516e-001  -1.821183e-001 
3600000000  -3.032668e-001  -1.845386e-001 
3605000000  -3.026972e-001  -1.887850e-001 
3610000000  -3.042589e-001  -1.944561e-001 
3615000000  -3.074214e-001  -1.991930e-001 
3620000000  -3.115115e-001  -2.021230e-001 
3625000000  -3.140477e-001  -2.047501e-001 
3630000000  -3.177004e-001  -2.080327e-001 
3635000000  -3.226163e-001  -2.095336e-001 
3640000000  -3.258702e-001  -2.095138e-001 
3645000000  -3.283762e-001  -2.112106e-001 
3650000000  -3.326198e-001  -2.129112e-001 
3655000000  -3.371886e-001  -2.131640e-001 
3660000000  -3.417038e-001  -2.134396e-001 
3665000000  -3.485321e-001  -2.120400e-001 
3670000000  -3.517688e-001  -2.085106e-001 
3675000000  -3.548389e-001  -2.065159e-001 
3680000000  -3.587800e-001  -2.028240e-001 
3685000000  -3.603343e-001  -1.983509e-001 
3690000000  -3.613510e-001  -1.949816e-001 
3695000000  -3.616443e-001  -1.918369e-001 
3700000000  -3.617342e-001  -1.897356e-001 
3705000000  -3.633938e-001  -1.876192e-001 
3710000000  -3.640259e-001  -1.827481e-001 
3715000000  -3.628792e-001  -1.786512e-001 
3720000000  -3.596299e-001  -1.761080e-001 
3725000000  -3.583925e-001  -1.751554e-001 
3730000000  -3.572028e-001  -1.721912e-001 
3735000000  -3.541680e-001  -1.699421e-001 
3740000000  -3.516061e-001  -1.691700e-001 
3745000000  -3.484613e-001  -1.679611e-001 
3750000000  -3.452972e-001  -1.678881e-001 
3755000000  -3.411186e-001  -1.680236e-001 
3760000000  -3.371205e-001  -1.705683e-001 
3765000000  -3.353284e-001  -1.736146e-001 
3770000000  -3.335811e-001  -1.767461e-001 
3775000000  -3.334288e-001  -1.789220e-001 
3780000000  -3.310744e-001  -1.800269e-001 
3785000000  -3.275098e-001  -1.838064e-001 
3790000000  -3.258691e-001  -1.892346e-001 
3795000000  -3.254249e-001  -1.942269e-001 
3800000000  -3.251654e-001  -1.991456e-001 
3805000000  -3.248152e-001  -2.045540e-001 
3810000000  -3.247230e-001  -2.103030e-001 
3815000000  -3.256949e-001  -2.187857e-001 
3820000000  -3.291496e-001  -2.257466e-001 
3825000000  -3.338718e-001  -2.323761e-001 
3830000000  -3.393439e-001  -2.373309e-001 
3835000000  -3.441068e-001  -2.414857e-001 
3840000000  -3.493176e-001  -2.477144e-001 
3845000000  -3.578340e-001  -2.516566e-001 
3850000000  -3.660910e-001  -2.543022e-001 
3855000000  -3.740635e-001  -2.544032e-001 
3860000000  -3.811848e-001  -2.542781e-001 
3865000000  -3.880008e-001  -2.524988e-001 
3870000000  -3.924839e-001  -2.502662e-001 
3875000000  -3.954861e-001  -2.494853e-001 
3880000000  -3.999358e-001  -2.498336e-001 
3885000000  -4.047873e-001  -2.496342e-001 
3890000000  -4.099716e-001  -2.482402e-001 
3895000000  -4.148618e-001  -2.463780e-001 
3900000000  -4.182084e-001  -2.445045e-001 
3905000000  -4.217056e-001  -2.433772e-001 
3910000000  -4.255743e-001  -2.415852e-001 
3915000000  -4.292405e-001  -2.391746e-001 
3920000000  -4.327008e-001  -2.378110e-001 
3925000000  -4.373570e-001  -2.358296e-001 
3930000000  -4.417987e-001  -2.326583e-001 
3935000000  -4.459365e-001  -2.286443e-001 
3940000000  -4.505060e-001  -2.234023e-001 
3945000000  -4.529712e-001  -2.162091e-001 
3950000000  -4.527549e-001  -2.094765e-001 
3955000000  -4.513654e-001  -2.044170e-001 
3960000000  -4.507186e-001  -2.001279e-001 
3965000000  -4.492840e-001  -1.956716e-001 
3970000000  -4.463105e-001  -1.924454e-001 
3975000000  -4.436124e-001  -1.898200e-001 
3980000000  -4.404251e-001  -1.883092e-001 
3985000000  -4.377656e-001  -1.869054e-001 
3990000000  -4.347891e-001  -1.867914e-001 
3995000000  -4.312330e-001  -1.860058e-001 
4000000000  -4.267448e-001  -1.879336e-001 
4005000000  -4.233406e-001  -1.918173e-001 
4010000000  -4.227674e-001  -1.947217e-001 
4015000000  -4.217531e-001  -1.979985e-001 
4020000000  -4.204913e-001  -2.019822e-001 
4025000000  -4.205973e-001  -2.058453e-001 
4030000000  -4.203581e-001  -2.089193e-001 
4035000000  -4.195817e-001  -2.143105e-001 
4040000000  -4.213831e-001  -2.196078e-001 
4045000000  -4.228271e-001  -2.248507e-001 
4050000000  -4.244952e-001  -2.324081e-001 
4055000000  -4.304176e-001  -2.395213e-001 
4060000000  -4.370092e-001  -2.448485e-001 
4065000000  -4.447142e-001  -2.483219e-001 
4070000000  -4.508151e-001  -2.514097e-001 
4075000000  -4.572761e-001  -2.547097e-001 
4080000000  -4.650417e-001  -2.577430e-001 
4085000000  -4.728199e-001  -2.586098e-001 
4090000000  -4.802871e-001  -2.592770e-001 
4095000000  -4.863450e-001  -2.598990e-001 
4100000000  -4.937252e-001  -2.605904e-001 
4105000000  -5.015926e-001  -2.597434e-001 
4110000000  -5.074211e-001  -2.599529e-001 
4115000000  -5.153400e-001  -2.596787e-001 
4120000000  -5.231373e-001  -2.576673e-001 
4125000000  -5.304774e-001  -2.554706e-001 
4130000000  -5.371346e-001  -2.531860e-001 
4135000000  -5.447231e-001  -2.506403e-001 
4140000000  -5.515985e-001  -2.466120e-001 
4145000000  -5.577318e-001  -2.436168e-001 
4150000000  -5.657373e-001  -2.386292e-001 
4155000000  -5.709655e-001  -2.329528e-001 
4160000000  -5.757049e-001  -2.284956e-001 
4165000000  -5.806793e-001  -2.225311e-001 
4170000000  -5.836607e-001  -2.173880e-001 
4175000000  -5.876124e-001  -2.134683e-001 
4180000000  -5.914837e-001  -2.077493e-001 
4185000000  -5.935224e-001  -2.024136e-001 
4190000000  -5.960637e-001  -1.988330e-001 
4195000000  -5.991710e-001  -1.946990e-001 
4200000000  -6.018938e-001  -1.901639e-001 
4205000000  -6.052269e-001  -1.855588e-001 
4210000000  -6.071834e-001  -1.790214e-001 
4215000000  -6.074717e-001  -1.744916e-001 
4220000000  -6.076074e-001  -1.700960e-001 
4225000000  -6.078162e-001  -1.661129e-001 
4230000000  -6.073166e-001  -1.648051e-001 
4235000000  -6.080784e-001  -1.627873e-001 
4240000000  -6.090055e-001  -1.607623e-001 
4245000000  -6.098589e-001  -1.591551e-001 
4250000000  -6.110247e-001  -1.592140e-001 
4255000000  -6.127335e-001  -1.582828e-001 
4260000000  -6.144720e-001  -1.577463e-001 
4265000000  -6.163648e-001  -1.576006e-001 
4270000000  -6.188891e-001  -1.593166e-001 
4275000000  -6.231999e-001  -1.599659e-001 
4280000000  -6.288626e-001  -1.606017e-001 
4285000000  -6.353086e-001  -1.586706e-001 
4290000000  -6.403942e-001  -1.562498e-001 
4295000000  -6.457726e-001  -1.528183e-001 
4300000000  -6.505188e-001  -1.500386e-001 
4305000000  -6.550286e-001  -1.462451e-001 
4310000000  -6.590005e-001  -1.432122e-001 
4315000000  -6.629700e-001  -1.398359e-001 
4320000000  -6.673411e-001  -1.361019e-001 
4325000000  -6.717119e-001  -1.326471e-001 
4330000000  -6.764287e-001  -1.294826e-001 
4335000000  -6.816389e-001  -1.250393e-001 
4340000000  -6.866452e-001  -1.203115e-001 
4345000000  -6.913699e-001  -1.160382e-001 
4350000000  -6.968229e-001  -1.105846e-001 
4355000000  -7.017244e-001  -1.052784e-001 
4360000000  -7.067816e-001  -9.878448e-002 
4365000000  -7.112080e-001  -9.185831e-002 
4370000000  -7.150000e-001  -8.591726e-002 
4375000000  -7.190053e-001  -7.971132e-002 
4380000000  -7.228425e-001  -7.214130e-002 
4385000000  -7.268608e-001  -6.533339e-002 
4390000000  -7.304384e-001  -5.739953e-002 
4395000000  -7.332227e-001  -4.866654e-002 
4400000000  -7.353565e-001  -4.074452e-002 
4405000000  -7.360839e-001  -3.297794e-002 
4410000000  -7.381263e-001  -2.651532e-002 
4415000000  -7.397084e-001  -1.989234e-002 
4420000000  -7.408902e-001  -1.274577e-002 
4425000000  -7.421866e-001  -6.102051e-003 
4430000000  -7.437433e-001  4.206494e-004 
4435000000  -7.457185e-001  7.550343e-003 
4440000000  -7.461931e-001  1.414476e-002 
4445000000  -7.478977e-001  2.001177e-002 
4450000000  -7.487782e-001  2.592084e-002 
4455000000  -7.497807e-001  3.223848e-002 
4460000000  -7.509608e-001  3.768376e-002 
4465000000  -7.531392e-001  4.441285e-002 
4470000000  -7.546242e-001  5.133238e-002 
4475000000  -7.546956e-001  5.898998e-002 
4480000000  -7.540770e-001  6.575377e-002 
4485000000  -7.533762e-001  7.203393e-002 
4490000000  -7.515993e-001  7.885218e-002 
4495000000  -7.506135e-001  8.455007e-002 
4500000000  -7.496019e-001  8.990213e-002 
4505000000  -7.480687e-001  9.562328e-002 
4510000000  -7.463134e-001  1.014275e-001 
4515000000  -7.454125e-001  1.068897e-001 
4520000000  -7.432275e-001  1.128307e-001 
4525000000  -7.409775e-001  1.184120e-001 
4530000000  -7.390448e-001  1.235081e-001 
4535000000  -7.369230e-001  1.290101e-001 
4540000000  -7.345603e-001  1.353927e-001 
4545000000  -7.314228e-001  1.399845e-001 
4550000000  -7.283651e-001  1.450827e-001 
4555000000  -7.253697e-001  1.505670e-001 
4560000000  -7.226847e-001  1.548955e-001 
4565000000  -7.201208e-001  1.602777e-001 
4570000000  -7.170923e-001  1.660357e-001 
4575000000  -7.141062e-001  1.714061e-001 
4580000000  -7.105098e-001  1.774918e-001 
4585000000  -7.064768e-001  1.843682e-001 
4590000000  -7.017609e-001  1.887302e-001 
4595000000  -6.976851e-001  1.932689e-001 
4600000000  -6.942276e-001  1.992592e-001 
4605000000  -6.902845e-001  2.039184e-001 
4610000000  -6.864620e-001  2.100745e-001 
4615000000  -6.818508e-001  2.146783e-001 
4620000000  -6.780103e-001  2.199088e-001 
4625000000  -6.735156e-001  2.249653e-001 
4630000000  -6.700894e-001  2.292057e-001 
4635000000  -6.661729e-001  2.349828e-001 
4640000000  -6.616253e-001  2.396843e-001 
4645000000  -6.577144e-001  2.441153e-001 
4650000000  -6.534519e-001  2.478120e-001 
4655000000  -6.494822e-001  2.507798e-001 
4660000000  -6.461218e-001  2.549922e-001 
4665000000  -6.428114e-001  2.587290e-001 
4670000000  -6.391781e-001  2.620067e-001 
4675000000  -6.353687e-001  2.651316e-001 
4680000000  -6.313224e-001  2.673317e-001 
4685000000  -6.285228e-001  2.702448e-001 
4690000000  -6.254176e-001  2.724129e-001 
4695000000  -6.233267e-001  2.737636e-001 
4700000000  -6.213503e-001  2.763547e-001 
4705000000  -6.194062e-001  2.785426e-001 
4710000000  -6.170387e-001  2.806656e-001 
4715000000  -6.143966e-001  2.833348e-001 
4720000000  -6.126917e-001  2.850055e-001 
4725000000  -6.101462e-001  2.864299e-001 
4730000000  -6.078205e-001  2.881575e-001 
4735000000  -6.055787e-001  2.884402e-001 
4740000000  -6.039513e-001  2.889624e-001 
4745000000  -6.033803e-001  2.886412e-001 
4750000000  -6.032488e-001  2.891925e-001 
4755000000  -6.034589e-001  2.906651e-001 
4760000000  -6.030722e-001  2.927245e-001 
4765000000  -6.016864e-001  2.941013e-001 
4770000000  -5.998546e-001  2.958190e-001 
4775000000  -5.990817e-001  2.961163e-001 
4780000000  -5.982316e-001  2.969441e-001 
4785000000  -5.982835e-001  2.981343e-001 
4790000000  -5.978549e-001  2.996317e-001 
4795000000  -5.962259e-001  3.015287e-001 
4800000000  -5.955849e-001  3.028589e-001 
4805000000  -5.945411e-001  3.038934e-001 
4810000000  -5.938333e-001  3.043573e-001 
4815000000  -5.936843e-001  3.052535e-001 
4820000000  -5.942690e-001  3.066331e-001 
4825000000  -5.951145e-001  3.077579e-001 
4830000000  -5.956980e-001  3.108355e-001 
4835000000  -5.961134e-001  3.134184e-001 
4840000000  -5.953313e-001  3.162172e-001 
4845000000  -5.943395e-001  3.197078e-001 
4850000000  -5.935828e-001  3.218084e-001 
4855000000  -5.929293e-001  3.238661e-001 
4860000000  -5.916584e-001  3.258561e-001 
4865000000  -5.917596e-001  3.276676e-001 
4870000000  -5.917006e-001  3.291795e-001 
4875000000  -5.915290e-001  3.319851e-001 
4880000000  -5.923833e-001  3.344020e-001 
4885000000  -5.923462e-001  3.377692e-001 
4890000000  -5.924991e-001  3.414541e-001 
4895000000  -5.915921e-001  3.439214e-001 
4900000000  -5.911125e-001  3.468212e-001 
4905000000  -5.906562e-001  3.503382e-001 
4910000000  -5.909539e-001  3.529827e-001 
4915000000  -5.905248e-001  3.568469e-001 
4920000000  -5.907690e-001  3.605123e-001 
4925000000  -5.908743e-001  3.650146e-001 
4930000000  -5.898125e-001  3.696004e-001 
4935000000  -5.886336e-001  3.735449e-001 
4940000000  -5.876353e-001  3.769212e-001 
4945000000  -5.872439e-001  3.814289e-001 
4950000000  -5.863506e-001  3.853781e-001 
4955000000  -5.850816e-001  3.904572e-001 
4960000000  -5.839027e-001  3.951454e-001 
4965000000  -5.823036e-001  3.998705e-001 
4970000000  -5.805274e-001  4.048778e-001 
4975000000  -5.785927e-001  4.099880e-001 
4980000000  -5.764042e-001  4.149517e-001 
4985000000  -5.738884e-001  4.198446e-001 
4990000000  -5.712919e-001  4.255681e-001 
4995000000  -5.684896e-001  4.296358e-001 
5000000000  -5.655098e-001  4.351841e-001 
5005000000  -5.632269e-001  4.401100e-001 
5010000000  -5.598022e-001  4.459084e-001 
5015000000  -5.563952e-001  4.514123e-001 
5020000000  -5.527260e-001  4.566444e-001 
5025000000  -5.491454e-001  4.612485e-001 
5030000000  -5.458480e-001  4.664812e-001 
5035000000  -5.425448e-001  4.723200e-001 
5040000000  -5.387885e-001  4.779137e-001 
5045000000  -5.348541e-001  4.838373e-001 
5050000000  -5.308515e-001  4.883785e-001 
5055000000  -5.258313e-001  4.942999e-001 
5060000000  -5.205243e-001  4.983385e-001 
5065000000  -5.171481e-001  5.020556e-001 
5070000000  -5.135171e-001  5.064923e-001 
5075000000  -5.099100e-001  5.114202e-001 
5080000000  -5.062765e-001  5.155530e-001 
5085000000  -5.021988e-001  5.202982e-001 
5090000000  -4.983832e-001  5.243609e-001 
5095000000  -4.950314e-001  5.281579e-001 
5100000000  -4.913435e-001  5.332981e-001 
5105000000  -4.867694e-001  5.380191e-001 
5110000000  -4.823087e-001  5.420083e-001 
5115000000  -4.779669e-001  5.453793e-001 
5120000000  -4.736781e-001  5.484086e-001 
5125000000  -4.696780e-001  5.511253e-001 
5130000000  -4.659418e-001  5.541855e-001 
5135000000  -4.625647e-001  5.566396e-001 
5140000000  -4.595554e-001  5.597796e-001 
5145000000  -4.563808e-001  5.630540e-001 
5150000000  -4.532807e-001  5.655736e-001 
5155000000  -4.501677e-001  5.688598e-001 
5160000000  -4.462934e-001  5.724318e-001 
5165000000  -4.423889e-001  5.758097e-001 
5170000000  -4.374808e-001  5.787539e-001 
5175000000  -4.326473e-001  5.813893e-001 
5180000000  -4.282961e-001  5.830085e-001 
5185000000  -4.240344e-001  5.845267e-001 
5190000000  -4.199977e-001  5.869229e-001 
5195000000  -4.162357e-001  5.882385e-001 
5200000000  -4.126808e-001  5.904448e-001 
5205000000  -4.090459e-001  5.930978e-001 
5210000000  -4.052851e-001  5.958220e-001 
5215000000  -4.004198e-001  5.993800e-001 
5220000000  -3.951173e-001  6.026031e-001 
5225000000  -3.900424e-001  6.043645e-001 
5230000000  -3.854754e-001  6.070016e-001 
5235000000  -3.811147e-001  6.091853e-001 
5240000000  -3.755584e-001  6.126120e-001 
5245000000  -3.698685e-001  6.157612e-001 
5250000000  -3.637590e-001  6.184658e-001 
5255000000  -3.579407e-001  6.203477e-001 
5260000000  -3.523772e-001  6.223996e-001 
5265000000  -3.475007e-001  6.247447e-001 
5270000000  -3.422241e-001  6.269726e-001 
5275000000  -3.376526e-001  6.297573e-001 
5280000000  -3.317683e-001  6.335155e-001 
5285000000  -3.259238e-001  6.366501e-001 
5290000000  -3.197250e-001  6.401239e-001 
5295000000  -3.130062e-001  6.432715e-001 
5300000000  -3.064384e-001  6.461471e-001 
5305000000  -2.997605e-001  6.486962e-001 
5310000000  -2.935636e-001  6.509523e-001 
5315000000  -2.873972e-001  6.532255e-001 
5320000000  -2.812861e-001  6.555579e-001 
5325000000  -2.754853e-001  6.581830e-001 
5330000000  -2.685978e-001  6.611183e-001 
5335000000  -2.618386e-001  6.624531e-001 
5340000000  -2.559679e-001  6.632537e-001 
5345000000  -2.498223e-001  6.645734e-001 
5350000000  -2.442656e-001  6.657049e-001 
5355000000  -2.388446e-001  6.669726e-001 
5360000000  -2.331879e-001  6.684397e-001 
5365000000  -2.277451e-001  6.695118e-001 
5370000000  -2.225550e-001  6.706206e-001 
5375000000  -2.160926e-001  6.720428e-001 
5380000000  -2.098664e-001  6.725288e-001 
5385000000  -2.038203e-001  6.730958e-001 
5390000000  -1.987097e-001  6.729168e-001 
5395000000  -1.933479e-001  6.731719e-001 
5400000000  -1.879605e-001  6.733443e-001 
5405000000  -1.826614e-001  6.734180e-001 
5410000000  -1.777339e-001  6.735551e-001 
5415000000  -1.727763e-001  6.743552e-001 
5420000000  -1.669813e-001  6.754959e-001 
5425000000  -1.604126e-001  6.756776e-001 
5430000000  -1.543174e-001  6.750103e-001 
5435000000  -1.487715e-001  6.744925e-001 
5440000000  -1.434990e-001  6.747500e-001 
5445000000  -1.377635e-001  6.750937e-001 
5450000000  -1.314100e-001  6.754132e-001 
5455000000  -1.249734e-001  6.753680e-001 
5460000000  -1.184690e-001  6.755937e-001 
5465000000  -1.116991e-001  6.754298e-001 
5470000000  -1.050517e-001  6.750603e-001 
5475000000  -9.855870e-002  6.749049e-001 
5480000000  -9.261131e-002  6.750773e-001 
5485000000  -8.489890e-002  6.761374e-001 
5490000000  -7.725803e-002  6.767415e-001 
5495000000  -6.950519e-002  6.770180e-001 
5500000000  -6.128120e-002  6.773944e-001 
5505000000  -5.293253e-002  6.770183e-001 
5510000000  -4.510409e-002  6.764362e-001 
5515000000  -3.712526e-002  6.762576e-001 
5520000000  -2.885395e-002  6.761691e-001 
5525000000  -1.996183e-002  6.758280e-001 
5530000000  -1.169989e-002  6.745955e-001 
5535000000  -3.385196e-003  6.731946e-001 
5540000000  4.806740e-003  6.721246e-001 
5545000000  1.343886e-002  6.706468e-001 
5550000000  2.193684e-002  6.684228e-001 
5555000000  3.014120e-002  6.659662e-001 
5560000000  3.850524e-002  6.635451e-001 
5565000000  4.708447e-002  6.603822e-001 
5570000000  5.500165e-002  6.564370e-001 
5575000000  6.251480e-002  6.522266e-001 
5580000000  6.985305e-002  6.474960e-001 
5585000000  7.640164e-002  6.421371e-001 
5590000000  8.174883e-002  6.377220e-001 
5595000000  8.755079e-002  6.326410e-001 
5600000000  9.365594e-002  6.273131e-001 
5605000000  9.822619e-002  6.213439e-001 
5610000000  1.026540e-001  6.153922e-001 
5615000000  1.069840e-001  6.092277e-001 
5620000000  1.108503e-001  6.029453e-001 
5625000000  1.146899e-001  5.960582e-001 
5630000000  1.178952e-001  5.885695e-001 
5635000000  1.198169e-001  5.803223e-001 
5640000000  1.205022e-001  5.724805e-001 
5645000000  1.204574e-001  5.657126e-001 
5650000000  1.204375e-001  5.598180e-001 
5655000000  1.209048e-001  5.536920e-001 
5660000000  1.206852e-001  5.470583e-001 
5665000000  1.197047e-001  5.411258e-001 
5670000000  1.181360e-001  5.358180e-001 
5675000000  1.163839e-001  5.318255e-001 
5680000000  1.153721e-001  5.291612e-001 
5685000000  1.147321e-001  5.266309e-001 
5690000000  1.149844e-001  5.251189e-001 
5695000000  1.160572e-001  5.230752e-001 
5700000000  1.175330e-001  5.210323e-001 
5705000000  1.184823e-001  5.193064e-001 
5710000000  1.205190e-001  5.179183e-001 
5715000000  1.230245e-001  5.164103e-001 
5720000000  1.260427e-001  5.151129e-001 
5725000000  1.294636e-001  5.134553e-001 
5730000000  1.333233e-001  5.117524e-001 
5735000000  1.372457e-001  5.091183e-001 
5740000000  1.409673e-001  5.065740e-001 
5745000000  1.448916e-001  5.045307e-001 
5750000000  1.491153e-001  5.024920e-001 
5755000000  1.542670e-001  4.999058e-001 
5760000000  1.583788e-001  4.966769e-001 
5765000000  1.622386e-001  4.938493e-001 
5770000000  1.662170e-001  4.912960e-001 
5775000000  1.702066e-001  4.892816e-001 
5780000000  1.748133e-001  4.871223e-001 
5785000000  1.791442e-001  4.848920e-001 
5790000000  1.842862e-001  4.829785e-001 
5795000000  1.896031e-001  4.798056e-001 
5800000000  1.938358e-001  4.766411e-001 
5805000000  1.986554e-001  4.741357e-001 
5810000000  2.046053e-001  4.708093e-001 
5815000000  2.098302e-001  4.666051e-001 
5820000000  2.150661e-001  4.618540e-001 
5825000000  2.196836e-001  4.552070e-001 
5830000000  2.233779e-001  4.485011e-001 
5835000000  2.267340e-001  4.421359e-001 
5840000000  2.294515e-001  4.349042e-001 
5845000000  2.315764e-001  4.282191e-001 
5850000000  2.337643e-001  4.206074e-001 
5855000000  2.353896e-001  4.124665e-001 
5860000000  2.361749e-001  4.035837e-001 
5865000000  2.354693e-001  3.939959e-001 
5870000000  2.329011e-001  3.849134e-001 
5875000000  2.290403e-001  3.772696e-001 
5880000000  2.258003e-001  3.707635e-001 
5885000000  2.224996e-001  3.636525e-001 
5890000000  2.179858e-001  3.568333e-001 
5895000000  2.137228e-001  3.505509e-001 
5900000000  2.088329e-001  3.443756e-001 
5905000000  2.022540e-001  3.384100e-001 
5910000000  1.956869e-001  3.334715e-001 
5915000000  1.876509e-001  3.297824e-001 
5920000000  1.805269e-001  3.283631e-001 
5925000000  1.749263e-001  3.273812e-001 
5930000000  1.696955e-001  3.258239e-001 
5935000000  1.634572e-001  3.247751e-001 
5940000000  1.576555e-001  3.248936e-001 
5945000000  1.523423e-001  3.262906e-001 
5950000000  1.477737e-001  3.280552e-001 
5955000000  1.435793e-001  3.311684e-001 
5960000000  1.412325e-001  3.346785e-001 
5965000000  1.398748e-001  3.379815e-001 
5970000000  1.392053e-001  3.406848e-001 
5975000000  1.384329e-001  3.435318e-001 
5980000000  1.381033e-001  3.471343e-001 
5985000000  1.389080e-001  3.507700e-001 
5990000000  1.401184e-001  3.540687e-001 
5995000000  1.417830e-001  3.572152e-001 
6000000000  1.441163e-001  3.605438e-001 
