!Agilent Technologies,E8364B,MY43040633,A.07.50.37
!Agilent E8364B: A.07.50.37
!Date: Tuesday, December 16, 2025 17:00:45
!Correction: S11(Full 1 Port(1)) 
!S1P File: Measurement: S11:
# Hz S  RI   R 50
1000000000  -6.438156e-001  -3.230968e-001 
1005000000  -6.573201e-001  -2.784882e-001 
1010000000  -6.682420e-001  -2.318853e-001 
1015000000  -6.765250e-001  -1.844694e-001 
1020000000  -6.809975e-001  -1.365211e-001 
1025000000  -6.829982e-001  -8.863901e-002 
1030000000  -6.825689e-001  -3.927840e-002 
1035000000  -6.775516e-001  9.252796e-003 
1040000000  -6.703005e-001  5.647542e-002 
1045000000  -6.617066e-001  1.024592e-001 
1050000000  -6.506204e-001  1.501566e-001 
1055000000  -6.355109e-001  1.980426e-001 
1060000000  -6.174349e-001  2.444653e-001 
1065000000  -5.965446e-001  2.899036e-001 
1070000000  -5.733363e-001  3.343617e-001 
1075000000  -5.461498e-001  3.775498e-001 
1080000000  -5.155879e-001  4.191486e-001 
1085000000  -4.827091e-001  4.580569e-001 
1090000000  -4.466601e-001  4.956211e-001 
1095000000  -4.070697e-001  5.297776e-001 
1100000000  -3.667040e-001  5.590695e-001 
1105000000  -3.233332e-001  5.864890e-001 
1110000000  -2.809904e-001  6.081910e-001 
1115000000  -2.370197e-001  6.292077e-001 
1120000000  -1.923085e-001  6.451937e-001 
1125000000  -1.490981e-001  6.578956e-001 
1130000000  -1.057821e-001  6.685094e-001 
1135000000  -6.184580e-002  6.769227e-001 
1140000000  -2.051930e-002  6.817612e-001 
1145000000  2.239335e-002  6.850818e-001 
1150000000  6.288460e-002  6.848208e-001 
1155000000  1.018669e-001  6.836159e-001 
1160000000  1.412087e-001  6.821806e-001 
1165000000  1.795025e-001  6.764910e-001 
1170000000  2.160827e-001  6.696681e-001 
1175000000  2.525988e-001  6.607636e-001 
1180000000  2.856071e-001  6.516356e-001 
1185000000  3.193680e-001  6.421639e-001 
1190000000  3.531266e-001  6.288138e-001 
1195000000  3.830594e-001  6.150329e-001 
1200000000  4.122511e-001  6.010125e-001 
1205000000  4.404452e-001  5.863509e-001 
1210000000  4.685555e-001  5.712970e-001 
1215000000  4.962704e-001  5.550910e-001 
1220000000  5.228262e-001  5.361670e-001 
1225000000  5.463471e-001  5.172869e-001 
1230000000  5.711294e-001  4.986334e-001 
1235000000  5.941750e-001  4.766480e-001 
1240000000  6.132252e-001  4.542742e-001 
1245000000  6.308560e-001  4.331836e-001 
1250000000  6.472926e-001  4.128708e-001 
1255000000  6.638393e-001  3.932973e-001 
1260000000  6.812097e-001  3.717953e-001 
1265000000  6.966950e-001  3.494188e-001 
1270000000  7.106774e-001  3.282956e-001 
1275000000  7.245024e-001  3.063429e-001 
1280000000  7.363967e-001  2.834830e-001 
1285000000  7.478754e-001  2.613349e-001 
1290000000  7.587346e-001  2.390622e-001 
1295000000  7.690180e-001  2.169790e-001 
1300000000  7.789803e-001  1.930105e-001 
1305000000  7.877729e-001  1.699185e-001 
1310000000  7.959543e-001  1.456437e-001 
1315000000  8.021948e-001  1.200212e-001 
1320000000  8.068492e-001  9.477296e-002 
1325000000  8.100960e-001  7.061156e-002 
1330000000  8.124207e-001  4.521226e-002 
1335000000  8.132062e-001  2.086463e-002 
1340000000  8.129711e-001  -3.779873e-003 
1345000000  8.115221e-001  -2.668851e-002 
1350000000  8.086368e-001  -5.056801e-002 
1355000000  8.044820e-001  -7.250116e-002 
1360000000  8.004994e-001  -9.401534e-002 
1365000000  7.954798e-001  -1.151870e-001 
1370000000  7.892010e-001  -1.367794e-001 
1375000000  7.816709e-001  -1.577768e-001 
1380000000  7.728040e-001  -1.773477e-001 
1385000000  7.643517e-001  -1.951502e-001 
1390000000  7.555895e-001  -2.124185e-001 
1395000000  7.460638e-001  -2.297488e-001 
1400000000  7.353784e-001  -2.466248e-001 
1405000000  7.228717e-001  -2.623628e-001 
1410000000  7.096975e-001  -2.746595e-001 
1415000000  6.973084e-001  -2.864639e-001 
1420000000  6.857607e-001  -2.944142e-001 
1425000000  6.760428e-001  -3.024250e-001 
1430000000  6.679593e-001  -3.098781e-001 
1435000000  6.620760e-001  -3.179156e-001 
1440000000  6.569710e-001  -3.278422e-001 
1445000000  6.528966e-001  -3.377790e-001 
1450000000  6.489169e-001  -3.514382e-001 
1455000000  6.426523e-001  -3.670157e-001 
1460000000  6.348220e-001  -3.832164e-001 
1465000000  6.240022e-001  -3.998683e-001 
1470000000  6.103620e-001  -4.163625e-001 
1475000000  5.951898e-001  -4.307647e-001 
1480000000  5.771413e-001  -4.447808e-001 
1485000000  5.578905e-001  -4.552289e-001 
1490000000  5.379364e-001  -4.623851e-001 
1495000000  5.181267e-001  -4.677258e-001 
1500000000  4.990404e-001  -4.710857e-001 
1505000000  4.800825e-001  -4.716145e-001 
1510000000  4.623619e-001  -4.684930e-001 
1515000000  4.486664e-001  -4.638143e-001 
1520000000  4.381700e-001  -4.591088e-001 
1525000000  4.312890e-001  -4.550991e-001 
1530000000  4.264242e-001  -4.543247e-001 
1535000000  4.229420e-001  -4.571647e-001 
1540000000  4.178030e-001  -4.638384e-001 
1545000000  4.100659e-001  -4.727586e-001 
1550000000  3.975469e-001  -4.836215e-001 
1555000000  3.809355e-001  -4.936017e-001 
1560000000  3.615538e-001  -5.013589e-001 
1565000000  3.393873e-001  -5.068898e-001 
1570000000  3.137714e-001  -5.103179e-001 
1575000000  2.854605e-001  -5.088733e-001 
1580000000  2.553114e-001  -5.018300e-001 
1585000000  2.260431e-001  -4.883648e-001 
1590000000  1.985532e-001  -4.699658e-001 
1595000000  1.728526e-001  -4.459752e-001 
1600000000  1.514520e-001  -4.171517e-001 
1605000000  1.344192e-001  -3.839623e-001 
1610000000  1.232438e-001  -3.464643e-001 
1615000000  1.190342e-001  -3.061835e-001 
1620000000  1.222837e-001  -2.644071e-001 
1625000000  1.353215e-001  -2.224476e-001 
1630000000  1.573966e-001  -1.841570e-001 
1635000000  1.869313e-001  -1.509329e-001 
1640000000  2.233838e-001  -1.244253e-001 
1645000000  2.643341e-001  -1.070456e-001 
1650000000  3.069826e-001  -9.875467e-002 
1655000000  3.491969e-001  -9.945244e-002 
1660000000  3.889305e-001  -1.075149e-001 
1665000000  4.256092e-001  -1.223359e-001 
1670000000  4.580811e-001  -1.421461e-001 
1675000000  4.858828e-001  -1.667338e-001 
1680000000  5.083604e-001  -1.948145e-001 
1685000000  5.253767e-001  -2.249532e-001 
1690000000  5.372928e-001  -2.560069e-001 
1695000000  5.446273e-001  -2.867877e-001 
1700000000  5.481868e-001  -3.171406e-001 
1705000000  5.477282e-001  -3.469428e-001 
1710000000  5.440535e-001  -3.752477e-001 
1715000000  5.374146e-001  -4.025086e-001 
1720000000  5.289665e-001  -4.285543e-001 
1725000000  5.177589e-001  -4.532062e-001 
1730000000  5.047109e-001  -4.755333e-001 
1735000000  4.892218e-001  -4.969555e-001 
1740000000  4.731487e-001  -5.152745e-001 
1745000000  4.560427e-001  -5.327616e-001 
1750000000  4.381382e-001  -5.487301e-001 
1755000000  4.184061e-001  -5.641629e-001 
1760000000  3.972987e-001  -5.778545e-001 
1765000000  3.747463e-001  -5.897174e-001 
1770000000  3.520546e-001  -5.993727e-001 
1775000000  3.280478e-001  -6.075484e-001 
1780000000  3.030701e-001  -6.140816e-001 
1785000000  2.770690e-001  -6.181197e-001 
1790000000  2.516774e-001  -6.201960e-001 
1795000000  2.245003e-001  -6.203551e-001 
1800000000  1.967211e-001  -6.178979e-001 
1805000000  1.697994e-001  -6.128085e-001 
1810000000  1.412278e-001  -6.055088e-001 
1815000000  1.136534e-001  -5.943800e-001 
1820000000  8.565733e-002  -5.802944e-001 
1825000000  5.868822e-002  -5.624930e-001 
1830000000  3.350649e-002  -5.411663e-001 
1835000000  9.391209e-003  -5.164794e-001 
1840000000  -1.176219e-002  -4.876727e-001 
1845000000  -2.978244e-002  -4.548106e-001 
1850000000  -4.344041e-002  -4.189354e-001 
1855000000  -5.229729e-002  -3.806089e-001 
1860000000  -5.617720e-002  -3.400052e-001 
1865000000  -5.352790e-002  -2.984707e-001 
1870000000  -4.516365e-002  -2.560371e-001 
1875000000  -2.956074e-002  -2.143866e-001 
1880000000  -6.607428e-003  -1.749609e-001 
1885000000  2.313737e-002  -1.391410e-001 
1890000000  5.888691e-002  -1.087737e-001 
1895000000  9.959249e-002  -8.487379e-002 
1900000000  1.436009e-001  -6.863648e-002 
1905000000  1.890374e-001  -6.008196e-002 
1910000000  2.344939e-001  -5.912477e-002 
1915000000  2.788369e-001  -6.566001e-002 
1920000000  3.203483e-001  -7.854661e-002 
1925000000  3.582655e-001  -9.751807e-002 
1930000000  3.919017e-001  -1.210843e-001 
1935000000  4.205632e-001  -1.489162e-001 
1940000000  4.446373e-001  -1.785697e-001 
1945000000  4.637736e-001  -2.103522e-001 
1950000000  4.782000e-001  -2.431490e-001 
1955000000  4.883702e-001  -2.760382e-001 
1960000000  4.940514e-001  -3.091939e-001 
1965000000  4.964742e-001  -3.415186e-001 
1970000000  4.952402e-001  -3.729908e-001 
1975000000  4.911067e-001  -4.030818e-001 
1980000000  4.842706e-001  -4.320504e-001 
1985000000  4.750782e-001  -4.595498e-001 
1990000000  4.634847e-001  -4.854807e-001 
1995000000  4.500578e-001  -5.099922e-001 
2000000000  4.346528e-001  -5.325074e-001 
2005000000  4.177740e-001  -5.533487e-001 
2010000000  3.993029e-001  -5.723537e-001 
2015000000  3.797594e-001  -5.894681e-001 
2020000000  3.591282e-001  -6.044479e-001 
2025000000  3.376072e-001  -6.174993e-001 
2030000000  3.153478e-001  -6.285402e-001 
2035000000  2.926212e-001  -6.375551e-001 
2040000000  2.694403e-001  -6.443546e-001 
2045000000  2.460347e-001  -6.490189e-001 
2050000000  2.225744e-001  -6.515850e-001 
2055000000  1.993069e-001  -6.516826e-001 
2060000000  1.764489e-001  -6.492520e-001 
2065000000  1.545769e-001  -6.445485e-001 
2070000000  1.338966e-001  -6.376579e-001 
2075000000  1.149797e-001  -6.285163e-001 
2080000000  9.806976e-002  -6.176031e-001 
2085000000  8.382466e-002  -6.053602e-001 
2090000000  7.229551e-002  -5.923084e-001 
2095000000  6.380431e-002  -5.792491e-001 
2100000000  5.821149e-002  -5.673149e-001 
2105000000  5.477745e-002  -5.572037e-001 
2110000000  5.291909e-002  -5.500107e-001 
2115000000  5.076887e-002  -5.453633e-001 
2120000000  4.780443e-002  -5.434121e-001 
2125000000  4.286471e-002  -5.431682e-001 
2130000000  3.528509e-002  -5.441068e-001 
2135000000  2.482539e-002  -5.444955e-001 
2140000000  1.173123e-002  -5.437717e-001 
2145000000  -3.543204e-003  -5.409214e-001 
2150000000  -2.042861e-002  -5.354502e-001 
2155000000  -3.825906e-002  -5.265532e-001 
2160000000  -5.587688e-002  -5.142373e-001 
2165000000  -7.309490e-002  -4.985509e-001 
2170000000  -8.880708e-002  -4.794813e-001 
2175000000  -1.021972e-001  -4.568674e-001 
2180000000  -1.125047e-001  -4.316029e-001 
2185000000  -1.192631e-001  -4.043668e-001 
2190000000  -1.227444e-001  -3.753254e-001 
2195000000  -1.221499e-001  -3.448512e-001 
2200000000  -1.163431e-001  -3.137443e-001 
2205000000  -1.052388e-001  -2.831234e-001 
2210000000  -8.920014e-002  -2.541916e-001 
2215000000  -6.829165e-002  -2.278010e-001 
2220000000  -4.315037e-002  -2.050966e-001 
2225000000  -1.474967e-002  -1.865818e-001 
2230000000  1.647603e-002  -1.726968e-001 
2235000000  4.936504e-002  -1.641666e-001 
2240000000  8.313790e-002  -1.611129e-001 
2245000000  1.164855e-001  -1.633980e-001 
2250000000  1.483478e-001  -1.708533e-001 
2255000000  1.783225e-001  -1.824006e-001 
2260000000  2.055807e-001  -1.982382e-001 
2265000000  2.295543e-001  -2.170971e-001 
2270000000  2.500954e-001  -2.381602e-001 
2275000000  2.676445e-001  -2.610103e-001 
2280000000  2.815515e-001  -2.852770e-001 
2285000000  2.921668e-001  -3.102300e-001 
2290000000  3.001013e-001  -3.350989e-001 
2295000000  3.053871e-001  -3.606826e-001 
2300000000  3.074859e-001  -3.864497e-001 
2305000000  3.069095e-001  -4.116165e-001 
2310000000  3.039188e-001  -4.360356e-001 
2315000000  2.983376e-001  -4.599187e-001 
2320000000  2.903001e-001  -4.825810e-001 
2325000000  2.798806e-001  -5.035107e-001 
2330000000  2.686291e-001  -5.218678e-001 
2335000000  2.569797e-001  -5.395989e-001 
2340000000  2.441025e-001  -5.563166e-001 
2345000000  2.298744e-001  -5.721372e-001 
2350000000  2.142748e-001  -5.861030e-001 
2355000000  1.986778e-001  -5.987422e-001 
2360000000  1.821038e-001  -6.104489e-001 
2365000000  1.646287e-001  -6.211361e-001 
2370000000  1.462344e-001  -6.298297e-001 
2375000000  1.284035e-001  -6.371906e-001 
2380000000  1.095879e-001  -6.442341e-001 
2385000000  9.021665e-002  -6.496502e-001 
2390000000  7.082096e-002  -6.533329e-001 
2395000000  5.067164e-002  -6.564136e-001 
2400000000  3.133930e-002  -6.580645e-001 
2405000000  1.093346e-002  -6.582838e-001 
2410000000  -8.686527e-003  -6.569651e-001 
2415000000  -2.827502e-002  -6.550779e-001 
2420000000  -4.837765e-002  -6.519778e-001 
2425000000  -6.805939e-002  -6.478143e-001 
2430000000  -8.813338e-002  -6.426435e-001 
2435000000  -1.080700e-001  -6.359447e-001 
2440000000  -1.277588e-001  -6.276472e-001 
2445000000  -1.469438e-001  -6.183178e-001 
2450000000  -1.663075e-001  -6.078730e-001 
2455000000  -1.850213e-001  -5.956413e-001 
2460000000  -2.033991e-001  -5.823407e-001 
2465000000  -2.210186e-001  -5.674096e-001 
2470000000  -2.378497e-001  -5.510224e-001 
2475000000  -2.540577e-001  -5.336915e-001 
2480000000  -2.695580e-001  -5.148740e-001 
2485000000  -2.842819e-001  -4.946345e-001 
2490000000  -2.977936e-001  -4.728588e-001 
2495000000  -3.098604e-001  -4.494561e-001 
2500000000  -3.205615e-001  -4.249132e-001 
2505000000  -3.299021e-001  -3.990521e-001 
2510000000  -3.372171e-001  -3.719023e-001 
2515000000  -3.425479e-001  -3.436893e-001 
2520000000  -3.456678e-001  -3.145433e-001 
2525000000  -3.467782e-001  -2.845036e-001 
2530000000  -3.452186e-001  -2.537965e-001 
2535000000  -3.413417e-001  -2.229265e-001 
2540000000  -3.352790e-001  -1.910192e-001 
2545000000  -3.259577e-001  -1.592488e-001 
2550000000  -3.135152e-001  -1.274986e-001 
2555000000  -2.975813e-001  -9.658442e-002 
2560000000  -2.789015e-001  -6.663846e-002 
2565000000  -2.566739e-001  -3.827548e-002 
2570000000  -2.317775e-001  -1.210283e-002 
2575000000  -2.044243e-001  1.223136e-002 
2580000000  -1.737646e-001  3.394260e-002 
2585000000  -1.412784e-001  5.243830e-002 
2590000000  -1.064457e-001  6.771782e-002 
2595000000  -7.018102e-002  7.872082e-002 
2600000000  -3.352235e-002  8.601073e-002 
2605000000  3.687391e-003  8.939885e-002 
2610000000  4.036780e-002  8.846545e-002 
2615000000  7.573763e-002  8.418584e-002 
2620000000  1.097389e-001  7.685784e-002 
2625000000  1.423261e-001  6.667131e-002 
2630000000  1.730113e-001  5.440203e-002 
2635000000  2.021944e-001  3.986313e-002 
2640000000  2.300491e-001  2.354012e-002 
2645000000  2.564099e-001  5.155542e-003 
2650000000  2.810273e-001  -1.568063e-002 
2655000000  3.029970e-001  -3.866196e-002 
2660000000  3.215686e-001  -6.341772e-002 
2665000000  3.374897e-001  -8.767439e-002 
2670000000  3.518558e-001  -1.129093e-001 
2675000000  3.637702e-001  -1.386396e-001 
2680000000  3.736948e-001  -1.646781e-001 
2685000000  3.809116e-001  -1.918398e-001 
2690000000  3.854918e-001  -2.179086e-001 
2695000000  3.874087e-001  -2.435246e-001 
2700000000  3.876248e-001  -2.672060e-001 
2705000000  3.876667e-001  -2.911063e-001 
2710000000  3.850051e-001  -3.149153e-001 
2715000000  3.806481e-001  -3.368342e-001 
2720000000  3.752124e-001  -3.578357e-001 
2725000000  3.682306e-001  -3.779399e-001 
2730000000  3.606437e-001  -3.962979e-001 
2735000000  3.521549e-001  -4.138229e-001 
2740000000  3.430301e-001  -4.299849e-001 
2745000000  3.330544e-001  -4.449426e-001 
2750000000  3.229445e-001  -4.580904e-001 
2755000000  3.126249e-001  -4.708634e-001 
2760000000  3.014566e-001  -4.823660e-001 
2765000000  2.907960e-001  -4.923916e-001 
2770000000  2.798244e-001  -5.009655e-001 
2775000000  2.693924e-001  -5.086619e-001 
2780000000  2.590658e-001  -5.160098e-001 
2785000000  2.483959e-001  -5.219268e-001 
2790000000  2.379337e-001  -5.262803e-001 
2795000000  2.285855e-001  -5.296595e-001 
2800000000  2.196470e-001  -5.319064e-001 
2805000000  2.123744e-001  -5.334628e-001 
2810000000  2.063378e-001  -5.353152e-001 
2815000000  2.006188e-001  -5.374018e-001 
2820000000  1.950174e-001  -5.392880e-001 
2825000000  1.905234e-001  -5.403374e-001 
2830000000  1.876384e-001  -5.415165e-001 
2835000000  1.850470e-001  -5.439945e-001 
2840000000  1.832545e-001  -5.462832e-001 
2845000000  1.822145e-001  -5.499013e-001 
2850000000  1.807981e-001  -5.544289e-001 
2855000000  1.792683e-001  -5.600830e-001 
2860000000  1.768419e-001  -5.666110e-001 
2865000000  1.737935e-001  -5.729626e-001 
2870000000  1.704848e-001  -5.800871e-001 
2875000000  1.658593e-001  -5.876783e-001 
2880000000  1.601556e-001  -5.951452e-001 
2885000000  1.539187e-001  -6.015031e-001 
2890000000  1.474744e-001  -6.079124e-001 
2895000000  1.397750e-001  -6.147310e-001 
2900000000  1.307827e-001  -6.204343e-001 
2905000000  1.213972e-001  -6.251198e-001 
2910000000  1.116763e-001  -6.289150e-001 
2915000000  1.018800e-001  -6.310815e-001 
2920000000  9.266759e-002  -6.322820e-001 
2925000000  8.344789e-002  -6.330454e-001 
2930000000  7.464005e-002  -6.329259e-001 
2935000000  6.622957e-002  -6.323178e-001 
2940000000  5.820406e-002  -6.308027e-001 
2945000000  5.083390e-002  -6.285730e-001 
2950000000  4.428376e-002  -6.252435e-001 
2955000000  3.938210e-002  -6.217791e-001 
2960000000  3.518696e-002  -6.183327e-001 
2965000000  3.226297e-002  -6.141928e-001 
2970000000  3.147091e-002  -6.106350e-001 
2975000000  3.094686e-002  -6.084060e-001 
2980000000  3.170267e-002  -6.068025e-001 
2985000000  3.298584e-002  -6.056827e-001 
2990000000  3.492237e-002  -6.057010e-001 
2995000000  3.738133e-002  -6.070688e-001 
3000000000  4.008307e-002  -6.099876e-001 
3005000000  4.279195e-002  -6.141986e-001 
3010000000  4.465207e-002  -6.198645e-001 
3015000000  4.563466e-002  -6.266601e-001 
3020000000  4.641106e-002  -6.340137e-001 
3025000000  4.542483e-002  -6.423501e-001 
3030000000  4.390249e-002  -6.509181e-001 
3035000000  4.130499e-002  -6.590961e-001 
3040000000  3.740062e-002  -6.676795e-001 
3045000000  3.277775e-002  -6.757109e-001 
3050000000  2.787206e-002  -6.841754e-001 
3055000000  2.168706e-002  -6.926455e-001 
3060000000  1.465754e-002  -7.003595e-001 
3065000000  6.918602e-003  -7.074815e-001 
3070000000  -1.161467e-003  -7.138870e-001 
3075000000  -9.178697e-003  -7.197449e-001 
3080000000  -1.785347e-002  -7.252458e-001 
3085000000  -2.647849e-002  -7.304525e-001 
3090000000  -3.574796e-002  -7.354378e-001 
3095000000  -4.563259e-002  -7.401832e-001 
3100000000  -5.639166e-002  -7.442708e-001 
3105000000  -6.659096e-002  -7.482824e-001 
3110000000  -7.648212e-002  -7.510720e-001 
3115000000  -8.563171e-002  -7.538120e-001 
3120000000  -9.593228e-002  -7.564332e-001 
3125000000  -1.066814e-001  -7.585933e-001 
3130000000  -1.172610e-001  -7.604882e-001 
3135000000  -1.289319e-001  -7.619981e-001 
3140000000  -1.411627e-001  -7.630929e-001 
3145000000  -1.520865e-001  -7.638878e-001 
3150000000  -1.637454e-001  -7.642743e-001 
3155000000  -1.739485e-001  -7.645760e-001 
3160000000  -1.836156e-001  -7.652849e-001 
3165000000  -1.949467e-001  -7.655016e-001 
3170000000  -2.056893e-001  -7.654431e-001 
3175000000  -2.168531e-001  -7.649121e-001 
3180000000  -2.277293e-001  -7.645446e-001 
3185000000  -2.397563e-001  -7.638440e-001 
3190000000  -2.519263e-001  -7.626550e-001 
3195000000  -2.641385e-001  -7.607967e-001 
3200000000  -2.762270e-001  -7.593609e-001 
3205000000  -2.885815e-001  -7.572612e-001 
3210000000  -3.009813e-001  -7.550405e-001 
3215000000  -3.161393e-001  -7.500474e-001 
3220000000  -3.294507e-001  -7.460815e-001 
3225000000  -3.410859e-001  -7.424259e-001 
3230000000  -3.516743e-001  -7.394210e-001 
3235000000  -3.621944e-001  -7.368975e-001 
3240000000  -3.740362e-001  -7.329575e-001 
3245000000  -3.862028e-001  -7.276324e-001 
3250000000  -3.996164e-001  -7.218794e-001 
3255000000  -4.109001e-001  -7.159338e-001 
3260000000  -4.223040e-001  -7.095128e-001 
3265000000  -4.335947e-001  -7.030039e-001 
3270000000  -4.444610e-001  -6.958715e-001 
3275000000  -4.553146e-001  -6.886014e-001 
3280000000  -4.656498e-001  -6.811479e-001 
3285000000  -4.757629e-001  -6.735753e-001 
3290000000  -4.858862e-001  -6.654444e-001 
3295000000  -4.960597e-001  -6.575062e-001 
3300000000  -5.061602e-001  -6.496271e-001 
3305000000  -5.159842e-001  -6.392813e-001 
3310000000  -5.257571e-001  -6.294193e-001 
3315000000  -5.357839e-001  -6.193453e-001 
3320000000  -5.458592e-001  -6.087046e-001 
3325000000  -5.556609e-001  -5.972500e-001 
3330000000  -5.656548e-001  -5.851986e-001 
3335000000  -5.756569e-001  -5.722915e-001 
3340000000  -5.856357e-001  -5.585102e-001 
3345000000  -5.957499e-001  -5.435067e-001 
3350000000  -6.054788e-001  -5.273595e-001 
3355000000  -6.148207e-001  -5.096774e-001 
3360000000  -6.236833e-001  -4.912583e-001 
3365000000  -6.320633e-001  -4.713866e-001 
3370000000  -6.393179e-001  -4.497549e-001 
3375000000  -6.457584e-001  -4.272258e-001 
3380000000  -6.510308e-001  -4.026440e-001 
3385000000  -6.541085e-001  -3.771558e-001 
3390000000  -6.551338e-001  -3.507688e-001 
3395000000  -6.550522e-001  -3.239351e-001 
3400000000  -6.537712e-001  -2.978043e-001 
3405000000  -6.478540e-001  -2.687689e-001 
3410000000  -6.399785e-001  -2.398094e-001 
3415000000  -6.294400e-001  -2.112466e-001 
3420000000  -6.161985e-001  -1.834089e-001 
3425000000  -5.998993e-001  -1.563706e-001 
3430000000  -5.807935e-001  -1.310943e-001 
3435000000  -5.594334e-001  -1.075357e-001 
3440000000  -5.355512e-001  -8.623983e-002 
3445000000  -5.096633e-001  -6.739082e-002 
3450000000  -4.823095e-001  -5.136896e-002 
3455000000  -4.536267e-001  -3.794206e-002 
3460000000  -4.233224e-001  -2.791426e-002 
3465000000  -3.926713e-001  -2.153793e-002 
3470000000  -3.619626e-001  -1.861505e-002 
3475000000  -3.319680e-001  -1.948780e-002 
3480000000  -3.033369e-001  -2.328530e-002 
3485000000  -2.762124e-001  -2.958573e-002 
3490000000  -2.500673e-001  -3.713650e-002 
3495000000  -2.241356e-001  -4.762694e-002 
3500000000  -2.003115e-001  -6.078853e-002 
3505000000  -1.785924e-001  -7.605807e-002 
3510000000  -1.592879e-001  -9.279334e-002 
3515000000  -1.424504e-001  -1.102456e-001 
3520000000  -1.269402e-001  -1.280188e-001 
3525000000  -1.130569e-001  -1.466063e-001 
3530000000  -1.007775e-001  -1.657107e-001 
3535000000  -9.010715e-002  -1.855468e-001 
3540000000  -8.140615e-002  -2.060773e-001 
3545000000  -7.415643e-002  -2.266969e-001 
3550000000  -6.926268e-002  -2.480519e-001 
3555000000  -6.756847e-002  -2.678387e-001 
3560000000  -6.579018e-002  -2.863204e-001 
3565000000  -6.512504e-002  -3.048664e-001 
3570000000  -6.530865e-002  -3.225198e-001 
3575000000  -6.646160e-002  -3.405483e-001 
3580000000  -6.934018e-002  -3.584241e-001 
3585000000  -7.364210e-002  -3.751945e-001 
3590000000  -7.895010e-002  -3.914358e-001 
3595000000  -8.565307e-002  -4.062105e-001 
3600000000  -9.248696e-002  -4.197154e-001 
3605000000  -1.000414e-001  -4.321124e-001 
3610000000  -1.065908e-001  -4.434243e-001 
3615000000  -1.143415e-001  -4.555672e-001 
3620000000  -1.231803e-001  -4.663233e-001 
3625000000  -1.320617e-001  -4.760425e-001 
3630000000  -1.417310e-001  -4.848916e-001 
3635000000  -1.513320e-001  -4.918808e-001 
3640000000  -1.605933e-001  -4.980295e-001 
3645000000  -1.685044e-001  -5.037193e-001 
3650000000  -1.768705e-001  -5.101039e-001 
3655000000  -1.856072e-001  -5.158110e-001 
3660000000  -1.947451e-001  -5.212714e-001 
3665000000  -2.038966e-001  -5.258242e-001 
3670000000  -2.130105e-001  -5.306190e-001 
3675000000  -2.226369e-001  -5.347434e-001 
3680000000  -2.329139e-001  -5.387121e-001 
3685000000  -2.436261e-001  -5.415128e-001 
3690000000  -2.537625e-001  -5.429194e-001 
3695000000  -2.629943e-001  -5.444898e-001 
3700000000  -2.725003e-001  -5.462021e-001 
3705000000  -2.825980e-001  -5.479985e-001 
3710000000  -2.928731e-001  -5.491377e-001 
3715000000  -3.039517e-001  -5.492228e-001 
3720000000  -3.144694e-001  -5.479513e-001 
3725000000  -3.247510e-001  -5.460054e-001 
3730000000  -3.349453e-001  -5.433469e-001 
3735000000  -3.442649e-001  -5.403946e-001 
3740000000  -3.530795e-001  -5.368620e-001 
3745000000  -3.622402e-001  -5.335479e-001 
3750000000  -3.711109e-001  -5.291716e-001 
3755000000  -3.795325e-001  -5.238869e-001 
3760000000  -3.866143e-001  -5.187789e-001 
3765000000  -3.932323e-001  -5.140836e-001 
3770000000  -4.000732e-001  -5.089136e-001 
3775000000  -4.061817e-001  -5.028895e-001 
3780000000  -4.115485e-001  -4.968569e-001 
3785000000  -4.161012e-001  -4.906339e-001 
3790000000  -4.197171e-001  -4.845703e-001 
3795000000  -4.231690e-001  -4.785304e-001 
3800000000  -4.250791e-001  -4.735380e-001 
3805000000  -4.280460e-001  -4.682895e-001 
3810000000  -4.293782e-001  -4.630823e-001 
3815000000  -4.294213e-001  -4.581182e-001 
3820000000  -4.298662e-001  -4.537842e-001 
3825000000  -4.295952e-001  -4.500627e-001 
3830000000  -4.290642e-001  -4.471330e-001 
3835000000  -4.277698e-001  -4.440426e-001 
3840000000  -4.256829e-001  -4.431444e-001 
3845000000  -4.249812e-001  -4.427399e-001 
3850000000  -4.242977e-001  -4.425909e-001 
3855000000  -4.234110e-001  -4.429201e-001 
3860000000  -4.223940e-001  -4.448222e-001 
3865000000  -4.226655e-001  -4.472874e-001 
3870000000  -4.230903e-001  -4.499872e-001 
3875000000  -4.246457e-001  -4.530479e-001 
3880000000  -4.269981e-001  -4.564676e-001 
3885000000  -4.299841e-001  -4.594494e-001 
3890000000  -4.332185e-001  -4.621310e-001 
3895000000  -4.363757e-001  -4.655062e-001 
3900000000  -4.408595e-001  -4.684765e-001 
3905000000  -4.454843e-001  -4.709756e-001 
3910000000  -4.505121e-001  -4.734240e-001 
3915000000  -4.561453e-001  -4.754282e-001 
3920000000  -4.619520e-001  -4.775187e-001 
3925000000  -4.686733e-001  -4.790070e-001 
3930000000  -4.752209e-001  -4.793729e-001 
3935000000  -4.815858e-001  -4.798171e-001 
3940000000  -4.881994e-001  -4.799286e-001 
3945000000  -4.952362e-001  -4.799677e-001 
3950000000  -5.020561e-001  -4.795716e-001 
3955000000  -5.092006e-001  -4.785532e-001 
3960000000  -5.172329e-001  -4.776803e-001 
3965000000  -5.252026e-001  -4.757527e-001 
3970000000  -5.317015e-001  -4.736513e-001 
3975000000  -5.397417e-001  -4.713496e-001 
3980000000  -5.471503e-001  -4.686017e-001 
3985000000  -5.544997e-001  -4.647911e-001 
3990000000  -5.608664e-001  -4.613441e-001 
3995000000  -5.682840e-001  -4.573033e-001 
4000000000  -5.746186e-001  -4.533240e-001 
4005000000  -5.805485e-001  -4.489086e-001 
4010000000  -5.864265e-001  -4.436184e-001 
4015000000  -5.918403e-001  -4.392386e-001 
4020000000  -5.973251e-001  -4.346334e-001 
4025000000  -6.031371e-001  -4.294913e-001 
4030000000  -6.083786e-001  -4.242631e-001 
4035000000  -6.132905e-001  -4.197545e-001 
4040000000  -6.189537e-001  -4.143304e-001 
4045000000  -6.237390e-001  -4.089022e-001 
4050000000  -6.279965e-001  -4.036323e-001 
4055000000  -6.326858e-001  -3.980636e-001 
4060000000  -6.370414e-001  -3.926718e-001 
4065000000  -6.416383e-001  -3.876024e-001 
4070000000  -6.460196e-001  -3.817124e-001 
4075000000  -6.495883e-001  -3.755932e-001 
4080000000  -6.523055e-001  -3.709992e-001 
4085000000  -6.566465e-001  -3.656854e-001 
4090000000  -6.599149e-001  -3.599252e-001 
4095000000  -6.627729e-001  -3.549416e-001 
4100000000  -6.663840e-001  -3.492835e-001 
4105000000  -6.694782e-001  -3.435608e-001 
4110000000  -6.721404e-001  -3.381602e-001 
4115000000  -6.742722e-001  -3.323819e-001 
4120000000  -6.767840e-001  -3.272913e-001 
4125000000  -6.790856e-001  -3.235972e-001 
4130000000  -6.822610e-001  -3.180107e-001 
4135000000  -6.846905e-001  -3.131451e-001 
4140000000  -6.866627e-001  -3.089028e-001 
4145000000  -6.893471e-001  -3.047765e-001 
4150000000  -6.923507e-001  -2.995774e-001 
4155000000  -6.945048e-001  -2.952016e-001 
4160000000  -6.971775e-001  -2.913759e-001 
4165000000  -7.006533e-001  -2.870425e-001 
4170000000  -7.037368e-001  -2.825371e-001 
4175000000  -7.072017e-001  -2.777807e-001 
4180000000  -7.092843e-001  -2.724673e-001 
4185000000  -7.115982e-001  -2.683258e-001 
4190000000  -7.152810e-001  -2.644131e-001 
4195000000  -7.186233e-001  -2.597635e-001 
4200000000  -7.221261e-001  -2.540601e-001 
4205000000  -7.250873e-001  -2.488988e-001 
4210000000  -7.278843e-001  -2.433984e-001 
4215000000  -7.308955e-001  -2.367319e-001 
4220000000  -7.327750e-001  -2.304453e-001 
4225000000  -7.342718e-001  -2.240173e-001 
4230000000  -7.353720e-001  -2.192681e-001 
4235000000  -7.371527e-001  -2.136121e-001 
4240000000  -7.385650e-001  -2.074413e-001 
4245000000  -7.399648e-001  -2.027407e-001 
4250000000  -7.410340e-001  -1.975660e-001 
4255000000  -7.424739e-001  -1.919368e-001 
4260000000  -7.432572e-001  -1.862475e-001 
4265000000  -7.441545e-001  -1.804920e-001 
4270000000  -7.442516e-001  -1.757552e-001 
4275000000  -7.448556e-001  -1.699198e-001 
4280000000  -7.455506e-001  -1.654863e-001 
4285000000  -7.459583e-001  -1.605550e-001 
4290000000  -7.460480e-001  -1.552022e-001 
4295000000  -7.460153e-001  -1.493708e-001 
4300000000  -7.452573e-001  -1.445931e-001 
4305000000  -7.441014e-001  -1.400401e-001 
4310000000  -7.446922e-001  -1.359647e-001 
4315000000  -7.452543e-001  -1.317385e-001 
4320000000  -7.456416e-001  -1.272981e-001 
4325000000  -7.460776e-001  -1.233373e-001 
4330000000  -7.464199e-001  -1.182220e-001 
4335000000  -7.466326e-001  -1.137654e-001 
4340000000  -7.475592e-001  -1.097555e-001 
4345000000  -7.480070e-001  -1.060528e-001 
4350000000  -7.491826e-001  -1.021949e-001 
4355000000  -7.511750e-001  -9.806053e-002 
4360000000  -7.525918e-001  -9.425459e-002 
4365000000  -7.544156e-001  -8.949859e-002 
4370000000  -7.568897e-001  -8.551382e-002 
4375000000  -7.595617e-001  -8.175290e-002 
4380000000  -7.618834e-001  -7.609418e-002 
4385000000  -7.639445e-001  -7.110369e-002 
4390000000  -7.669858e-001  -6.648221e-002 
4395000000  -7.702914e-001  -6.034684e-002 
4400000000  -7.730829e-001  -5.518070e-002 
4405000000  -7.754930e-001  -4.915114e-002 
4410000000  -7.793116e-001  -4.253155e-002 
4415000000  -7.821923e-001  -3.587949e-002 
4420000000  -7.845473e-001  -2.958825e-002 
4425000000  -7.867091e-001  -2.225326e-002 
4430000000  -7.888983e-001  -1.509795e-002 
4435000000  -7.916095e-001  -9.176822e-003 
4440000000  -7.930126e-001  -9.872424e-004 
4445000000  -7.949830e-001  5.760809e-003 
4450000000  -7.959470e-001  1.232980e-002 
4455000000  -7.972370e-001  1.937657e-002 
4460000000  -7.981744e-001  2.627537e-002 
4465000000  -7.988935e-001  3.381465e-002 
4470000000  -7.993866e-001  4.033887e-002 
4475000000  -7.994652e-001  4.730128e-002 
4480000000  -7.991318e-001  5.425182e-002 
4485000000  -7.986988e-001  6.078190e-002 
4490000000  -7.973960e-001  6.749211e-002 
4495000000  -7.968938e-001  7.480993e-002 
4500000000  -7.953756e-001  8.095764e-002 
4505000000  -7.937987e-001  8.728502e-002 
4510000000  -7.919154e-001  9.360408e-002 
4515000000  -7.906041e-001  1.002016e-001 
4520000000  -7.884845e-001  1.068108e-001 
4525000000  -7.865310e-001  1.145679e-001 
4530000000  -7.841272e-001  1.214012e-001 
4535000000  -7.809948e-001  1.280145e-001 
4540000000  -7.780011e-001  1.355868e-001 
4545000000  -7.745097e-001  1.420788e-001 
4550000000  -7.707638e-001  1.491414e-001 
4555000000  -7.669738e-001  1.560213e-001 
4560000000  -7.629371e-001  1.626470e-001 
4565000000  -7.588370e-001  1.699202e-001 
4570000000  -7.540233e-001  1.776983e-001 
4575000000  -7.490236e-001  1.846516e-001 
4580000000  -7.435806e-001  1.924437e-001 
4585000000  -7.382478e-001  1.997486e-001 
4590000000  -7.325059e-001  2.067013e-001 
4595000000  -7.262918e-001  2.127883e-001 
4600000000  -7.201280e-001  2.202432e-001 
4605000000  -7.141891e-001  2.265979e-001 
4610000000  -7.080972e-001  2.329264e-001 
4615000000  -7.010422e-001  2.390397e-001 
4620000000  -6.947346e-001  2.454695e-001 
4625000000  -6.875693e-001  2.507558e-001 
4630000000  -6.813666e-001  2.554948e-001 
4635000000  -6.758872e-001  2.599525e-001 
4640000000  -6.698893e-001  2.644843e-001 
4645000000  -6.651024e-001  2.688950e-001 
4650000000  -6.604486e-001  2.729889e-001 
4655000000  -6.553053e-001  2.781679e-001 
4660000000  -6.497856e-001  2.828330e-001 
4665000000  -6.445099e-001  2.856446e-001 
4670000000  -6.398203e-001  2.900514e-001 
4675000000  -6.351287e-001  2.923457e-001 
4680000000  -6.311672e-001  2.953729e-001 
4685000000  -6.275891e-001  2.980379e-001 
4690000000  -6.246817e-001  3.013735e-001 
4695000000  -6.224612e-001  3.051220e-001 
4700000000  -6.189675e-001  3.091416e-001 
4705000000  -6.156219e-001  3.125228e-001 
4710000000  -6.125743e-001  3.151388e-001 
4715000000  -6.096566e-001  3.185095e-001 
4720000000  -6.072164e-001  3.211576e-001 
4725000000  -6.049056e-001  3.234704e-001 
4730000000  -6.028805e-001  3.272369e-001 
4735000000  -6.007049e-001  3.300084e-001 
4740000000  -5.986760e-001  3.336343e-001 
4745000000  -5.966920e-001  3.373969e-001 
4750000000  -5.940522e-001  3.402708e-001 
4755000000  -5.918137e-001  3.430346e-001 
4760000000  -5.899692e-001  3.464186e-001 
4765000000  -5.881026e-001  3.494084e-001 
4770000000  -5.857577e-001  3.537736e-001 
4775000000  -5.840541e-001  3.574642e-001 
4780000000  -5.814697e-001  3.614913e-001 
4785000000  -5.786817e-001  3.663810e-001 
4790000000  -5.754521e-001  3.706498e-001 
4795000000  -5.716341e-001  3.741809e-001 
4800000000  -5.692443e-001  3.776965e-001 
4805000000  -5.657504e-001  3.822534e-001 
4810000000  -5.625470e-001  3.856746e-001 
4815000000  -5.585880e-001  3.904757e-001 
4820000000  -5.548875e-001  3.946393e-001 
4825000000  -5.513293e-001  3.986547e-001 
4830000000  -5.475408e-001  4.033541e-001 
4835000000  -5.432661e-001  4.077983e-001 
4840000000  -5.387846e-001  4.110726e-001 
4845000000  -5.340324e-001  4.160232e-001 
4850000000  -5.293564e-001  4.200532e-001 
4855000000  -5.246161e-001  4.234220e-001 
4860000000  -5.199111e-001  4.277694e-001 
4865000000  -5.150856e-001  4.325062e-001 
4870000000  -5.094151e-001  4.367602e-001 
4875000000  -5.026298e-001  4.415032e-001 
4880000000  -4.966615e-001  4.451668e-001 
4885000000  -4.900607e-001  4.492105e-001 
4890000000  -4.834680e-001  4.532767e-001 
4895000000  -4.763855e-001  4.561763e-001 
4900000000  -4.689464e-001  4.600696e-001 
4905000000  -4.612046e-001  4.635099e-001 
4910000000  -4.536110e-001  4.666622e-001 
4915000000  -4.452434e-001  4.697298e-001 
4920000000  -4.366928e-001  4.726131e-001 
4925000000  -4.281615e-001  4.746813e-001 
4930000000  -4.189044e-001  4.765196e-001 
4935000000  -4.098190e-001  4.783128e-001 
4940000000  -4.005958e-001  4.797641e-001 
4945000000  -3.915357e-001  4.807805e-001 
4950000000  -3.822313e-001  4.815661e-001 
4955000000  -3.729538e-001  4.818152e-001 
4960000000  -3.631943e-001  4.824558e-001 
4965000000  -3.533427e-001  4.825423e-001 
4970000000  -3.432033e-001  4.820600e-001 
4975000000  -3.324993e-001  4.813128e-001 
4980000000  -3.222526e-001  4.792860e-001 
4985000000  -3.125984e-001  4.763466e-001 
4990000000  -3.036088e-001  4.739522e-001 
4995000000  -2.953872e-001  4.712264e-001 
5000000000  -2.866724e-001  4.690894e-001 
5005000000  -2.780911e-001  4.663157e-001 
5010000000  -2.696447e-001  4.629024e-001 
5015000000  -2.612183e-001  4.592344e-001 
5020000000  -2.536292e-001  4.549851e-001 
5025000000  -2.471478e-001  4.506116e-001 
5030000000  -2.414334e-001  4.465810e-001 
5035000000  -2.357783e-001  4.426059e-001 
5040000000  -2.307084e-001  4.385467e-001 
5045000000  -2.262451e-001  4.352902e-001 
5050000000  -2.217939e-001  4.315464e-001 
5055000000  -2.179332e-001  4.274733e-001 
5060000000  -2.145087e-001  4.238800e-001 
5065000000  -2.125014e-001  4.203933e-001 
5070000000  -2.103303e-001  4.179294e-001 
5075000000  -2.076483e-001  4.161691e-001 
5080000000  -2.056227e-001  4.142780e-001 
5085000000  -2.036721e-001  4.125501e-001 
5090000000  -2.018002e-001  4.112157e-001 
5095000000  -2.001389e-001  4.096986e-001 
5100000000  -1.985201e-001  4.093263e-001 
5105000000  -1.962546e-001  4.092276e-001 
5110000000  -1.941465e-001  4.088443e-001 
5115000000  -1.919482e-001  4.090862e-001 
5120000000  -1.889390e-001  4.093156e-001 
5125000000  -1.859786e-001  4.092698e-001 
5130000000  -1.830053e-001  4.094083e-001 
5135000000  -1.794514e-001  4.098402e-001 
5140000000  -1.752505e-001  4.100098e-001 
5145000000  -1.710601e-001  4.097580e-001 
5150000000  -1.667081e-001  4.095960e-001 
5155000000  -1.614716e-001  4.097492e-001 
5160000000  -1.553535e-001  4.089976e-001 
5165000000  -1.494638e-001  4.074241e-001 
5170000000  -1.430859e-001  4.061398e-001 
5175000000  -1.358888e-001  4.041297e-001 
5180000000  -1.294004e-001  4.008422e-001 
5185000000  -1.227611e-001  3.975162e-001 
5190000000  -1.155881e-001  3.944011e-001 
5195000000  -1.089592e-001  3.905059e-001 
5200000000  -1.012697e-001  3.864905e-001 
5205000000  -9.380654e-002  3.815081e-001 
5210000000  -8.702838e-002  3.756774e-001 
5215000000  -8.027294e-002  3.703555e-001 
5220000000  -7.314849e-002  3.650215e-001 
5225000000  -6.632803e-002  3.588794e-001 
5230000000  -5.906168e-002  3.524066e-001 
5235000000  -5.288941e-002  3.452438e-001 
5240000000  -4.588787e-002  3.384407e-001 
5245000000  -3.880129e-002  3.308207e-001 
5250000000  -3.242246e-002  3.222842e-001 
5255000000  -2.664117e-002  3.134854e-001 
5260000000  -2.134557e-002  3.048424e-001 
5265000000  -1.559105e-002  2.962536e-001 
5270000000  -9.768043e-003  2.862393e-001 
5275000000  -5.038126e-003  2.756031e-001 
5280000000  -1.014322e-003  2.650343e-001 
5285000000  2.759710e-003  2.539216e-001 
5290000000  5.633880e-003  2.424965e-001 
5295000000  7.465662e-003  2.306491e-001 
5300000000  8.623461e-003  2.190870e-001 
5305000000  9.360732e-003  2.069890e-001 
5310000000  8.305954e-003  1.948916e-001 
5315000000  6.582659e-003  1.837816e-001 
5320000000  4.953306e-003  1.728470e-001 
5325000000  2.613858e-003  1.615573e-001 
5330000000  8.488021e-005  1.501163e-001 
5335000000  -3.699422e-003  1.382071e-001 
5340000000  -8.715799e-003  1.264290e-001 
5345000000  -1.444638e-002  1.152074e-001 
5350000000  -2.115500e-002  1.043323e-001 
5355000000  -2.809726e-002  9.418590e-002 
5360000000  -3.560265e-002  8.357737e-002 
5365000000  -4.442715e-002  7.356459e-002 
5370000000  -5.355851e-002  6.407610e-002 
5375000000  -6.366447e-002  5.498809e-002 
5380000000  -7.455634e-002  4.678777e-002 
5385000000  -8.599692e-002  3.958980e-002 
5390000000  -9.741613e-002  3.319991e-002 
5395000000  -1.091197e-001  2.717543e-002 
5400000000  -1.214510e-001  2.216185e-002 
5405000000  -1.335733e-001  1.807882e-002 
5410000000  -1.458557e-001  1.426357e-002 
5415000000  -1.582511e-001  1.130988e-002 
5420000000  -1.707333e-001  8.768267e-003 
5425000000  -1.835425e-001  6.872729e-003 
5430000000  -1.966549e-001  5.867682e-003 
5435000000  -2.097640e-001  6.139135e-003 
5440000000  -2.221423e-001  7.059279e-003 
5445000000  -2.345785e-001  8.575574e-003 
5450000000  -2.465864e-001  1.112339e-002 
5455000000  -2.579250e-001  1.398531e-002 
5460000000  -2.690411e-001  1.716386e-002 
5465000000  -2.802186e-001  2.093477e-002 
5470000000  -2.914357e-001  2.538751e-002 
5475000000  -3.018749e-001  3.142734e-002 
5480000000  -3.114800e-001  3.768329e-002 
5485000000  -3.208125e-001  4.427657e-002 
5490000000  -3.297581e-001  5.117683e-002 
5495000000  -3.383341e-001  5.853959e-002 
5500000000  -3.467637e-001  6.650780e-002 
5505000000  -3.545396e-001  7.478441e-002 
5510000000  -3.623428e-001  8.346938e-002 
5515000000  -3.694475e-001  9.341600e-002 
5520000000  -3.756252e-001  1.032159e-001 
5525000000  -3.816184e-001  1.129486e-001 
5530000000  -3.870385e-001  1.233756e-001 
5535000000  -3.922800e-001  1.338362e-001 
5540000000  -3.966506e-001  1.445482e-001 
5545000000  -4.010254e-001  1.552486e-001 
5550000000  -4.050203e-001  1.661876e-001 
5555000000  -4.082499e-001  1.778462e-001 
5560000000  -4.107198e-001  1.893093e-001 
5565000000  -4.127252e-001  2.003615e-001 
5570000000  -4.145277e-001  2.112799e-001 
5575000000  -4.163073e-001  2.226673e-001 
5580000000  -4.173109e-001  2.341169e-001 
5585000000  -4.177278e-001  2.460494e-001 
5590000000  -4.172274e-001  2.570975e-001 
5595000000  -4.165214e-001  2.676292e-001 
5600000000  -4.160367e-001  2.782956e-001 
5605000000  -4.148433e-001  2.888274e-001 
5610000000  -4.129204e-001  2.990864e-001 
5615000000  -4.108659e-001  3.087889e-001 
5620000000  -4.084931e-001  3.185765e-001 
5625000000  -4.051034e-001  3.277980e-001 
5630000000  -4.021717e-001  3.359911e-001 
5635000000  -3.990720e-001  3.441609e-001 
5640000000  -3.957921e-001  3.519540e-001 
5645000000  -3.912530e-001  3.604257e-001 
5650000000  -3.865072e-001  3.670987e-001 
5655000000  -3.816769e-001  3.732919e-001 
5660000000  -3.771288e-001  3.786429e-001 
5665000000  -3.727624e-001  3.843317e-001 
5670000000  -3.680725e-001  3.897717e-001 
5675000000  -3.629696e-001  3.947901e-001 
5680000000  -3.581125e-001  3.994192e-001 
5685000000  -3.533204e-001  4.038807e-001 
5690000000  -3.483521e-001  4.087774e-001 
5695000000  -3.429641e-001  4.126795e-001 
5700000000  -3.369654e-001  4.172394e-001 
5705000000  -3.314517e-001  4.203199e-001 
5710000000  -3.258671e-001  4.235145e-001 
5715000000  -3.205362e-001  4.265828e-001 
5720000000  -3.156711e-001  4.294473e-001 
5725000000  -3.109725e-001  4.324642e-001 
5730000000  -3.055579e-001  4.359221e-001 
5735000000  -3.002721e-001  4.391216e-001 
5740000000  -2.948617e-001  4.421149e-001 
5745000000  -2.900149e-001  4.449712e-001 
5750000000  -2.852418e-001  4.482920e-001 
5755000000  -2.801370e-001  4.523105e-001 
5760000000  -2.746187e-001  4.556444e-001 
5765000000  -2.691219e-001  4.593584e-001 
5770000000  -2.640271e-001  4.630039e-001 
5775000000  -2.585280e-001  4.669402e-001 
5780000000  -2.529213e-001  4.708448e-001 
5785000000  -2.472268e-001  4.747323e-001 
5790000000  -2.416489e-001  4.783112e-001 
5795000000  -2.363472e-001  4.820283e-001 
5800000000  -2.308776e-001  4.862294e-001 
5805000000  -2.252610e-001  4.899859e-001 
5810000000  -2.195396e-001  4.941416e-001 
5815000000  -2.138043e-001  4.976440e-001 
5820000000  -2.087000e-001  5.005847e-001 
5825000000  -2.035443e-001  5.041671e-001 
5830000000  -1.984122e-001  5.076348e-001 
5835000000  -1.928484e-001  5.112606e-001 
5840000000  -1.872867e-001  5.143211e-001 
5845000000  -1.817538e-001  5.171106e-001 
5850000000  -1.766299e-001  5.197550e-001 
5855000000  -1.713054e-001  5.222502e-001 
5860000000  -1.663228e-001  5.242673e-001 
5865000000  -1.616591e-001  5.262665e-001 
5870000000  -1.572167e-001  5.282964e-001 
5875000000  -1.532998e-001  5.307552e-001 
5880000000  -1.486269e-001  5.334522e-001 
5885000000  -1.437270e-001  5.356444e-001 
5890000000  -1.395315e-001  5.371413e-001 
5895000000  -1.346915e-001  5.392411e-001 
5900000000  -1.304581e-001  5.411337e-001 
5905000000  -1.262136e-001  5.429731e-001 
5910000000  -1.214240e-001  5.448765e-001 
5915000000  -1.171142e-001  5.467001e-001 
5920000000  -1.126073e-001  5.484999e-001 
5925000000  -1.072103e-001  5.505505e-001 
5930000000  -1.024566e-001  5.521162e-001 
5935000000  -9.701628e-002  5.541051e-001 
5940000000  -9.137815e-002  5.555018e-001 
5945000000  -8.598904e-002  5.570891e-001 
5950000000  -7.973456e-002  5.591501e-001 
5955000000  -7.328918e-002  5.606930e-001 
5960000000  -6.668690e-002  5.618618e-001 
5965000000  -6.015111e-002  5.632348e-001 
5970000000  -5.325076e-002  5.644090e-001 
5975000000  -4.630933e-002  5.656696e-001 
5980000000  -3.888221e-002  5.671673e-001 
5985000000  -3.151174e-002  5.684559e-001 
5990000000  -2.356575e-002  5.696579e-001 
5995000000  -1.523475e-002  5.704054e-001 
6000000000  -6.831334e-003  5.712089e-001 
