!Agilent Technologies,E8364B,MY43040633,A.07.50.37
!Agilent E8364B: A.07.50.37
!Date: Tuesday, December 16, 2025 17:07:10
!Correction: S11(Full 1 Port(1)) 
!S1P File: Measurement: S11:
# Hz S  RI   R 50
1000000000  5.688660e-001  8.000443e-001 
1005000000  5.828769e-001  7.894281e-001 
1010000000  5.974426e-001  7.794110e-001 
1015000000  6.111423e-001  7.683846e-001 
1020000000  6.250489e-001  7.575900e-001 
1025000000  6.374435e-001  7.465934e-001 
1030000000  6.507822e-001  7.346782e-001 
1035000000  6.625239e-001  7.234860e-001 
1040000000  6.749477e-001  7.119801e-001 
1045000000  6.863248e-001  7.002421e-001 
1050000000  6.986192e-001  6.885608e-001 
1055000000  7.103670e-001  6.755983e-001 
1060000000  7.221158e-001  6.637487e-001 
1065000000  7.327271e-001  6.512003e-001 
1070000000  7.443854e-001  6.383380e-001 
1075000000  7.554080e-001  6.256353e-001 
1080000000  7.666252e-001  6.115439e-001 
1085000000  7.770642e-001  5.984152e-001 
1090000000  7.865351e-001  5.848864e-001 
1095000000  7.969004e-001  5.704573e-001 
1100000000  8.052779e-001  5.571975e-001 
1105000000  8.153104e-001  5.427060e-001 
1110000000  8.244550e-001  5.287382e-001 
1115000000  8.332617e-001  5.141126e-001 
1120000000  8.412958e-001  4.996914e-001 
1125000000  8.499578e-001  4.846744e-001 
1130000000  8.570471e-001  4.696631e-001 
1135000000  8.652126e-001  4.544543e-001 
1140000000  8.727331e-001  4.393315e-001 
1145000000  8.795875e-001  4.239581e-001 
1150000000  8.864884e-001  4.086366e-001 
1155000000  8.927544e-001  3.937600e-001 
1160000000  8.996021e-001  3.780526e-001 
1165000000  9.055260e-001  3.618719e-001 
1170000000  9.111974e-001  3.466342e-001 
1175000000  9.168569e-001  3.306439e-001 
1180000000  9.233254e-001  3.137158e-001 
1185000000  9.278035e-001  2.978006e-001 
1190000000  9.321126e-001  2.810960e-001 
1195000000  9.365650e-001  2.648016e-001 
1200000000  9.406896e-001  2.482123e-001 
1205000000  9.447899e-001  2.308922e-001 
1210000000  9.482160e-001  2.138086e-001 
1215000000  9.507495e-001  1.978561e-001 
1220000000  9.542838e-001  1.799263e-001 
1225000000  9.568165e-001  1.626812e-001 
1230000000  9.585155e-001  1.466795e-001 
1235000000  9.611310e-001  1.282793e-001 
1240000000  9.625251e-001  1.114366e-001 
1245000000  9.636043e-001  9.393845e-002 
1250000000  9.645019e-001  7.706192e-002 
1255000000  9.653016e-001  5.951540e-002 
1260000000  9.662774e-001  4.105186e-002 
1265000000  9.668259e-001  2.290432e-002 
1270000000  9.665260e-001  5.159930e-003 
1275000000  9.660852e-001  -1.206236e-002 
1280000000  9.656407e-001  -3.007036e-002 
1285000000  9.648617e-001  -4.899996e-002 
1290000000  9.636450e-001  -6.640251e-002 
1295000000  9.616760e-001  -8.420721e-002 
1300000000  9.598502e-001  -1.031695e-001 
1305000000  9.574265e-001  -1.214795e-001 
1310000000  9.544444e-001  -1.399430e-001 
1315000000  9.512390e-001  -1.576163e-001 
1320000000  9.480327e-001  -1.770668e-001 
1325000000  9.439702e-001  -1.940806e-001 
1330000000  9.399092e-001  -2.136266e-001 
1335000000  9.351310e-001  -2.312721e-001 
1340000000  9.302234e-001  -2.500495e-001 
1345000000  9.247198e-001  -2.682039e-001 
1350000000  9.188829e-001  -2.861644e-001 
1355000000  9.127864e-001  -3.041176e-001 
1360000000  9.063607e-001  -3.219678e-001 
1365000000  8.992848e-001  -3.383917e-001 
1370000000  8.919500e-001  -3.559424e-001 
1375000000  8.842719e-001  -3.741193e-001 
1380000000  8.759898e-001  -3.919277e-001 
1385000000  8.677365e-001  -4.089831e-001 
1390000000  8.591240e-001  -4.252024e-001 
1395000000  8.502361e-001  -4.420025e-001 
1400000000  8.410710e-001  -4.586653e-001 
1405000000  8.315364e-001  -4.745718e-001 
1410000000  8.212165e-001  -4.917958e-001 
1415000000  8.109775e-001  -5.082016e-001 
1420000000  8.000181e-001  -5.240394e-001 
1425000000  7.890693e-001  -5.394140e-001 
1430000000  7.773455e-001  -5.557896e-001 
1435000000  7.653995e-001  -5.715013e-001 
1440000000  7.526282e-001  -5.874020e-001 
1445000000  7.404218e-001  -6.013016e-001 
1450000000  7.267801e-001  -6.170463e-001 
1455000000  7.142882e-001  -6.303634e-001 
1460000000  7.007402e-001  -6.450702e-001 
1465000000  6.870561e-001  -6.592628e-001 
1470000000  6.727623e-001  -6.737521e-001 
1475000000  6.587323e-001  -6.869370e-001 
1480000000  6.435065e-001  -7.009837e-001 
1485000000  6.288645e-001  -7.139383e-001 
1490000000  6.134695e-001  -7.262822e-001 
1495000000  5.971182e-001  -7.397642e-001 
1500000000  5.812153e-001  -7.514054e-001 
1505000000  5.649055e-001  -7.633682e-001 
1510000000  5.480977e-001  -7.745572e-001 
1515000000  5.308263e-001  -7.862672e-001 
1520000000  5.147874e-001  -7.961334e-001 
1525000000  4.973308e-001  -8.068708e-001 
1530000000  4.803655e-001  -8.168069e-001 
1535000000  4.621124e-001  -8.271538e-001 
1540000000  4.441410e-001  -8.363211e-001 
1545000000  4.261582e-001  -8.458393e-001 
1550000000  4.076411e-001  -8.545870e-001 
1555000000  3.885644e-001  -8.631505e-001 
1560000000  3.700540e-001  -8.708339e-001 
1565000000  3.505610e-001  -8.787578e-001 
1570000000  3.318853e-001  -8.852634e-001 
1575000000  3.126791e-001  -8.916655e-001 
1580000000  2.939715e-001  -8.975371e-001 
1585000000  2.740290e-001  -9.035020e-001 
1590000000  2.545640e-001  -9.090442e-001 
1595000000  2.342526e-001  -9.137803e-001 
1600000000  2.149895e-001  -9.181125e-001 
1605000000  1.949554e-001  -9.224235e-001 
1610000000  1.753478e-001  -9.259173e-001 
1615000000  1.545814e-001  -9.294310e-001 
1620000000  1.343045e-001  -9.317846e-001 
1625000000  1.139821e-001  -9.337873e-001 
1630000000  9.349277e-002  -9.360453e-001 
1635000000  7.297243e-002  -9.373564e-001 
1640000000  5.286784e-002  -9.387213e-001 
1645000000  3.186231e-002  -9.388613e-001 
1650000000  1.115717e-002  -9.391704e-001 
1655000000  -9.837089e-003  -9.391114e-001 
1660000000  -3.095135e-002  -9.383875e-001 
1665000000  -5.184840e-002  -9.370850e-001 
1670000000  -7.238970e-002  -9.354253e-001 
1675000000  -9.391046e-002  -9.333205e-001 
1680000000  -1.148753e-001  -9.303591e-001 
1685000000  -1.353817e-001  -9.264957e-001 
1690000000  -1.564804e-001  -9.227749e-001 
1695000000  -1.773825e-001  -9.186295e-001 
1700000000  -1.981137e-001  -9.139515e-001 
1705000000  -2.186772e-001  -9.083726e-001 
1710000000  -2.401001e-001  -9.026569e-001 
1715000000  -2.599640e-001  -8.961685e-001 
1720000000  -2.805153e-001  -8.896223e-001 
1725000000  -3.007938e-001  -8.824393e-001 
1730000000  -3.205556e-001  -8.749623e-001 
1735000000  -3.404878e-001  -8.671703e-001 
1740000000  -3.597137e-001  -8.590415e-001 
1745000000  -3.796555e-001  -8.498893e-001 
1750000000  -3.993710e-001  -8.408018e-001 
1755000000  -4.180792e-001  -8.306917e-001 
1760000000  -4.371701e-001  -8.202208e-001 
1765000000  -4.555570e-001  -8.096349e-001 
1770000000  -4.733112e-001  -7.988845e-001 
1775000000  -4.912722e-001  -7.875548e-001 
1780000000  -5.092494e-001  -7.756385e-001 
1785000000  -5.266869e-001  -7.633057e-001 
1790000000  -5.445839e-001  -7.505473e-001 
1795000000  -5.610542e-001  -7.375612e-001 
1800000000  -5.778479e-001  -7.240416e-001 
1805000000  -5.942320e-001  -7.101121e-001 
1810000000  -6.104277e-001  -6.958570e-001 
1815000000  -6.261029e-001  -6.815919e-001 
1820000000  -6.418269e-001  -6.659466e-001 
1825000000  -6.575186e-001  -6.500733e-001 
1830000000  -6.716583e-001  -6.345763e-001 
1835000000  -6.862221e-001  -6.183274e-001 
1840000000  -7.005111e-001  -6.018798e-001 
1845000000  -7.141806e-001  -5.845068e-001 
1850000000  -7.274585e-001  -5.672493e-001 
1855000000  -7.404449e-001  -5.494554e-001 
1860000000  -7.524643e-001  -5.313345e-001 
1865000000  -7.650182e-001  -5.127173e-001 
1870000000  -7.762384e-001  -4.938902e-001 
1875000000  -7.882954e-001  -4.744220e-001 
1880000000  -7.991907e-001  -4.546976e-001 
1885000000  -8.095998e-001  -4.345182e-001 
1890000000  -8.199052e-001  -4.137900e-001 
1895000000  -8.294352e-001  -3.930745e-001 
1900000000  -8.385463e-001  -3.720446e-001 
1905000000  -8.465168e-001  -3.511161e-001 
1910000000  -8.547349e-001  -3.290878e-001 
1915000000  -8.615893e-001  -3.077335e-001 
1920000000  -8.685353e-001  -2.858083e-001 
1925000000  -8.748749e-001  -2.635032e-001 
1930000000  -8.808073e-001  -2.413402e-001 
1935000000  -8.856499e-001  -2.183719e-001 
1940000000  -8.899473e-001  -1.956408e-001 
1945000000  -8.939499e-001  -1.727580e-001 
1950000000  -8.972057e-001  -1.496253e-001 
1955000000  -9.000346e-001  -1.266864e-001 
1960000000  -9.018099e-001  -1.029542e-001 
1965000000  -9.033433e-001  -7.930309e-002 
1970000000  -9.038576e-001  -5.580717e-002 
1975000000  -9.038875e-001  -3.215177e-002 
1980000000  -9.035624e-001  -7.758117e-003 
1985000000  -9.020666e-001  1.536526e-002 
1990000000  -9.001890e-001  3.930054e-002 
1995000000  -8.977518e-001  6.328075e-002 
2000000000  -8.944855e-001  8.721118e-002 
2005000000  -8.907490e-001  1.112734e-001 
2010000000  -8.860986e-001  1.355612e-001 
2015000000  -8.810535e-001  1.597607e-001 
2020000000  -8.749443e-001  1.842319e-001 
2025000000  -8.680350e-001  2.083419e-001 
2030000000  -8.602865e-001  2.323991e-001 
2035000000  -8.518650e-001  2.564626e-001 
2040000000  -8.430327e-001  2.806574e-001 
2045000000  -8.330746e-001  3.048963e-001 
2050000000  -8.221838e-001  3.291475e-001 
2055000000  -8.104470e-001  3.533911e-001 
2060000000  -7.978439e-001  3.773983e-001 
2065000000  -7.844212e-001  4.014609e-001 
2070000000  -7.698650e-001  4.255950e-001 
2075000000  -7.542614e-001  4.496875e-001 
2080000000  -7.373266e-001  4.733925e-001 
2085000000  -7.193858e-001  4.966898e-001 
2090000000  -7.002000e-001  5.196297e-001 
2095000000  -6.799186e-001  5.417666e-001 
2100000000  -6.588564e-001  5.632731e-001 
2105000000  -6.370165e-001  5.843160e-001 
2110000000  -6.142173e-001  6.049336e-001 
2115000000  -5.905108e-001  6.248279e-001 
2120000000  -5.659451e-001  6.445981e-001 
2125000000  -5.400091e-001  6.639053e-001 
2130000000  -5.126523e-001  6.822212e-001 
2135000000  -4.841164e-001  6.994705e-001 
2140000000  -4.543659e-001  7.159300e-001 
2145000000  -4.234550e-001  7.310696e-001 
2150000000  -3.914107e-001  7.451450e-001 
2155000000  -3.584533e-001  7.575599e-001 
2160000000  -3.252952e-001  7.685104e-001 
2165000000  -2.901231e-001  7.788587e-001 
2170000000  -2.544696e-001  7.878121e-001 
2175000000  -2.175263e-001  7.949185e-001 
2180000000  -1.799093e-001  8.003690e-001 
2185000000  -1.413794e-001  8.038337e-001 
2190000000  -1.023147e-001  8.057491e-001 
2195000000  -6.248555e-002  8.063436e-001 
2200000000  -2.161014e-002  8.044699e-001 
2205000000  1.991652e-002  8.000924e-001 
2210000000  6.166370e-002  7.934941e-001 
2215000000  1.036021e-001  7.844667e-001 
2220000000  1.462661e-001  7.737529e-001 
2225000000  1.899230e-001  7.595992e-001 
2230000000  2.329698e-001  7.419698e-001 
2235000000  2.754244e-001  7.217441e-001 
2240000000  3.170729e-001  6.985773e-001 
2245000000  3.580324e-001  6.729310e-001 
2250000000  3.985232e-001  6.437485e-001 
2255000000  4.371558e-001  6.116418e-001 
2260000000  4.739946e-001  5.771199e-001 
2265000000  5.097771e-001  5.396981e-001 
2270000000  5.435048e-001  4.988895e-001 
2275000000  5.745859e-001  4.551909e-001 
2280000000  6.024438e-001  4.089928e-001 
2285000000  6.275588e-001  3.608073e-001 
2290000000  6.493354e-001  3.105613e-001 
2295000000  6.675928e-001  2.581354e-001 
2300000000  6.820241e-001  2.047229e-001 
2305000000  6.929387e-001  1.503310e-001 
2310000000  7.003411e-001  9.480238e-002 
2315000000  7.040897e-001  3.806720e-002 
2320000000  7.032639e-001  -1.929989e-002 
2325000000  6.976891e-001  -7.663335e-002 
2330000000  6.872364e-001  -1.329818e-001 
2335000000  6.730205e-001  -1.875885e-001 
2340000000  6.552773e-001  -2.408363e-001 
2345000000  6.339456e-001  -2.924998e-001 
2350000000  6.091085e-001  -3.422344e-001 
2355000000  5.810842e-001  -3.896517e-001 
2360000000  5.499203e-001  -4.347806e-001 
2365000000  5.159054e-001  -4.770603e-001 
2370000000  4.793204e-001  -5.161276e-001 
2375000000  4.407467e-001  -5.524299e-001 
2380000000  4.001958e-001  -5.853439e-001 
2385000000  3.586884e-001  -6.151528e-001 
2390000000  3.159214e-001  -6.418759e-001 
2395000000  2.719934e-001  -6.659486e-001 
2400000000  2.267109e-001  -6.867462e-001 
2405000000  1.808289e-001  -7.035693e-001 
2410000000  1.356166e-001  -7.172773e-001 
2415000000  9.066004e-002  -7.281721e-001 
2420000000  4.614430e-002  -7.361613e-001 
2425000000  2.632468e-003  -7.418547e-001 
2430000000  -4.066708e-002  -7.452711e-001 
2435000000  -8.301263e-002  -7.464024e-001 
2440000000  -1.246643e-001  -7.454001e-001 
2445000000  -1.655017e-001  -7.422107e-001 
2450000000  -2.053240e-001  -7.369538e-001 
2455000000  -2.438953e-001  -7.297771e-001 
2460000000  -2.811514e-001  -7.207506e-001 
2465000000  -3.172848e-001  -7.103692e-001 
2470000000  -3.516038e-001  -6.980435e-001 
2475000000  -3.848398e-001  -6.848969e-001 
2480000000  -4.164347e-001  -6.705448e-001 
2485000000  -4.469261e-001  -6.554223e-001 
2490000000  -4.760337e-001  -6.390727e-001 
2495000000  -5.034704e-001  -6.219925e-001 
2500000000  -5.298697e-001  -6.045915e-001 
2505000000  -5.554057e-001  -5.865430e-001 
2510000000  -5.794680e-001  -5.676571e-001 
2515000000  -6.027400e-001  -5.485882e-001 
2520000000  -6.246881e-001  -5.284543e-001 
2525000000  -6.452661e-001  -5.075434e-001 
2530000000  -6.646954e-001  -4.864869e-001 
2535000000  -6.822354e-001  -4.651001e-001 
2540000000  -6.997785e-001  -4.434299e-001 
2545000000  -7.159039e-001  -4.219745e-001 
2550000000  -7.311473e-001  -4.007176e-001 
2555000000  -7.455782e-001  -3.789514e-001 
2560000000  -7.588306e-001  -3.571769e-001 
2565000000  -7.715492e-001  -3.351933e-001 
2570000000  -7.833586e-001  -3.133521e-001 
2575000000  -7.945779e-001  -2.915157e-001 
2580000000  -8.047670e-001  -2.694862e-001 
2585000000  -8.141174e-001  -2.477610e-001 
2590000000  -8.230540e-001  -2.259787e-001 
2595000000  -8.309619e-001  -2.041805e-001 
2600000000  -8.384804e-001  -1.826009e-001 
2605000000  -8.453710e-001  -1.612375e-001 
2610000000  -8.514175e-001  -1.399842e-001 
2615000000  -8.569051e-001  -1.187775e-001 
2620000000  -8.618791e-001  -9.810762e-002 
2625000000  -8.662851e-001  -7.741280e-002 
2630000000  -8.701375e-001  -5.702495e-002 
2635000000  -8.736334e-001  -3.681872e-002 
2640000000  -8.765234e-001  -1.672025e-002 
2645000000  -8.791932e-001  2.906448e-003 
2650000000  -8.811912e-001  2.255335e-002 
2655000000  -8.829010e-001  4.194380e-002 
2660000000  -8.842401e-001  6.117670e-002 
2665000000  -8.852929e-001  8.029571e-002 
2670000000  -8.855101e-001  9.932407e-002 
2675000000  -8.854939e-001  1.178143e-001 
2680000000  -8.852571e-001  1.361430e-001 
2685000000  -8.845974e-001  1.542203e-001 
2690000000  -8.832682e-001  1.722446e-001 
2695000000  -8.817936e-001  1.902457e-001 
2700000000  -8.805974e-001  2.081094e-001 
2705000000  -8.786718e-001  2.258540e-001 
2710000000  -8.762348e-001  2.434259e-001 
2715000000  -8.735936e-001  2.610003e-001 
2720000000  -8.705795e-001  2.785207e-001 
2725000000  -8.670999e-001  2.959001e-001 
2730000000  -8.632236e-001  3.135494e-001 
2735000000  -8.587646e-001  3.308307e-001 
2740000000  -8.536947e-001  3.476072e-001 
2745000000  -8.480147e-001  3.635613e-001 
2750000000  -8.425968e-001  3.812520e-001 
2755000000  -8.366205e-001  3.991428e-001 
2760000000  -8.300157e-001  4.155484e-001 
2765000000  -8.227298e-001  4.339079e-001 
2770000000  -8.145337e-001  4.513279e-001 
2775000000  -8.058326e-001  4.684329e-001 
2780000000  -7.959757e-001  4.855095e-001 
2785000000  -7.856148e-001  5.024908e-001 
2790000000  -7.736281e-001  5.186040e-001 
2795000000  -7.607135e-001  5.322641e-001 
2800000000  -7.471588e-001  5.472938e-001 
2805000000  -7.326003e-001  5.613499e-001 
2810000000  -7.176734e-001  5.739044e-001 
2815000000  -7.026631e-001  5.848354e-001 
2820000000  -6.880513e-001  5.947872e-001 
2825000000  -6.746930e-001  6.037612e-001 
2830000000  -6.624128e-001  6.121279e-001 
2835000000  -6.501315e-001  6.226866e-001 
2840000000  -6.379359e-001  6.337164e-001 
2845000000  -6.247944e-001  6.448580e-001 
2850000000  -6.080027e-001  6.595707e-001 
2855000000  -5.873001e-001  6.747639e-001 
2860000000  -5.625001e-001  6.877614e-001 
2865000000  -5.333790e-001  6.972404e-001 
2870000000  -4.992066e-001  7.034569e-001 
2875000000  -4.616538e-001  7.029579e-001 
2880000000  -4.212628e-001  6.941310e-001 
2885000000  -3.799279e-001  6.739451e-001 
2890000000  -3.405884e-001  6.410524e-001 
2895000000  -3.087298e-001  5.931449e-001 
2900000000  -2.909296e-001  5.333233e-001 
2905000000  -2.945969e-001  4.657199e-001 
2910000000  -3.226743e-001  4.000953e-001 
2915000000  -3.729560e-001  3.470881e-001 
2920000000  -4.368311e-001  3.147328e-001 
2925000000  -5.045280e-001  3.044296e-001 
2930000000  -5.680010e-001  3.136543e-001 
2935000000  -6.229268e-001  3.364021e-001 
2940000000  -6.676543e-001  3.680660e-001 
2945000000  -7.024869e-001  4.052057e-001 
2950000000  -7.287915e-001  4.438165e-001 
2955000000  -7.476976e-001  4.826579e-001 
2960000000  -7.609249e-001  5.209686e-001 
2965000000  -7.696270e-001  5.576448e-001 
2970000000  -7.746337e-001  5.923507e-001 
2975000000  -7.777780e-001  6.241275e-001 
2980000000  -7.776203e-001  6.575359e-001 
2985000000  -7.766772e-001  6.876997e-001 
2990000000  -7.733381e-001  7.176285e-001 
2995000000  -7.678491e-001  7.483960e-001 
3000000000  -7.616668e-001  7.770195e-001 
3005000000  -7.552519e-001  8.042156e-001 
3010000000  -7.480833e-001  8.308042e-001 
3015000000  -7.399830e-001  8.571008e-001 
3020000000  -7.312022e-001  8.825576e-001 
3025000000  -7.226084e-001  9.074339e-001 
3030000000  -7.130991e-001  9.321184e-001 
3035000000  -7.044858e-001  9.554948e-001 
3040000000  -6.914166e-001  9.821367e-001 
3045000000  -6.788651e-001  1.006831e+000 
3050000000  -6.647717e-001  1.031911e+000 
3055000000  -6.514009e-001  1.056336e+000 
3060000000  -6.378658e-001  1.080709e+000 
3065000000  -6.221303e-001  1.105607e+000 
3070000000  -6.079952e-001  1.128629e+000 
3075000000  -5.923629e-001  1.152573e+000 
3080000000  -5.795379e-001  1.175528e+000 
3085000000  -5.601542e-001  1.200244e+000 
3090000000  -5.394071e-001  1.224663e+000 
3095000000  -5.112097e-001  1.247716e+000 
3100000000  -4.847524e-001  1.269896e+000 
3105000000  -4.613045e-001  1.292615e+000 
3110000000  -4.415807e-001  1.316738e+000 
3115000000  -4.255498e-001  1.342061e+000 
3120000000  -3.995349e-001  1.364064e+000 
3125000000  -3.712178e-001  1.385103e+000 
3130000000  -3.383209e-001  1.403569e+000 
3135000000  -3.037433e-001  1.420030e+000 
3140000000  -2.637185e-001  1.432311e+000 
3145000000  -2.311128e-001  1.449616e+000 
3150000000  -1.941784e-001  1.462758e+000 
3155000000  -1.616073e-001  1.481659e+000 
3160000000  -1.314373e-001  1.503640e+000 
3165000000  -9.291712e-002  1.516573e+000 
3170000000  -5.752431e-002  1.533848e+000 
3175000000  -1.780443e-002  1.544925e+000 
3180000000  2.328594e-002  1.554288e+000 
3185000000  6.706048e-002  1.556897e+000 
3190000000  1.116306e-001  1.556499e+000 
3195000000  1.547357e-001  1.553334e+000 
3200000000  2.002036e-001  1.549730e+000 
3205000000  2.450479e-001  1.543242e+000 
3210000000  2.896006e-001  1.533796e+000 
3215000000  3.295328e-001  1.496013e+000 
3220000000  3.692379e-001  1.474540e+000 
3225000000  4.092828e-001  1.461554e+000 
3230000000  4.517701e-001  1.454271e+000 
3235000000  4.957338e-001  1.447544e+000 
3240000000  5.359962e-001  1.428496e+000 
3245000000  5.717954e-001  1.403481e+000 
3250000000  6.072317e-001  1.372282e+000 
3255000000  6.429747e-001  1.345622e+000 
3260000000  6.757572e-001  1.317109e+000 
3265000000  7.077133e-001  1.287453e+000 
3270000000  7.386906e-001  1.255872e+000 
3275000000  7.670457e-001  1.222881e+000 
3280000000  7.935206e-001  1.189296e+000 
3285000000  8.180608e-001  1.153873e+000 
3290000000  8.418700e-001  1.116727e+000 
3295000000  8.633393e-001  1.080169e+000 
3300000000  8.861006e-001  1.041708e+000 
3305000000  8.981490e-001  1.000404e+000 
3310000000  9.091096e-001  9.579290e-001 
3315000000  9.185464e-001  9.147912e-001 
3320000000  9.243250e-001  8.713869e-001 
3325000000  9.266468e-001  8.280387e-001 
3330000000  9.260854e-001  7.843988e-001 
3335000000  9.214872e-001  7.405748e-001 
3340000000  9.125608e-001  6.965908e-001 
3345000000  8.984141e-001  6.529841e-001 
3350000000  8.780853e-001  6.106367e-001 
3355000000  8.517849e-001  5.712090e-001 
3360000000  8.185810e-001  5.358830e-001 
3365000000  7.785084e-001  5.067155e-001 
3370000000  7.323456e-001  4.862137e-001 
3375000000  6.809133e-001  4.767894e-001 
3380000000  6.284130e-001  4.808184e-001 
3385000000  5.779892e-001  5.003774e-001 
3390000000  5.360730e-001  5.357437e-001 
3395000000  5.099733e-001  5.830518e-001 
3400000000  5.044524e-001  6.345364e-001 
3405000000  5.111849e-001  6.847110e-001 
3410000000  5.337802e-001  7.273729e-001 
3415000000  5.665812e-001  7.599565e-001 
3420000000  6.064566e-001  7.813140e-001 
3425000000  6.482409e-001  7.915613e-001 
3430000000  6.888867e-001  7.916892e-001 
3435000000  7.273760e-001  7.836312e-001 
3440000000  7.600980e-001  7.706958e-001 
3445000000  7.902843e-001  7.540169e-001 
3450000000  8.163719e-001  7.343791e-001 
3455000000  8.388399e-001  7.129037e-001 
3460000000  8.580941e-001  6.904016e-001 
3465000000  8.740095e-001  6.678220e-001 
3470000000  8.874728e-001  6.445270e-001 
3475000000  8.990952e-001  6.211968e-001 
3480000000  9.085513e-001  5.991415e-001 
3485000000  9.164874e-001  5.774561e-001 
3490000000  9.233177e-001  5.561953e-001 
3495000000  9.290000e-001  5.351279e-001 
3500000000  9.334624e-001  5.143170e-001 
3505000000  9.369228e-001  4.942910e-001 
3510000000  9.400734e-001  4.750559e-001 
3515000000  9.424813e-001  4.563006e-001 
3520000000  9.446501e-001  4.376618e-001 
3525000000  9.465035e-001  4.196391e-001 
3530000000  9.477109e-001  4.017166e-001 
3535000000  9.485291e-001  3.849362e-001 
3540000000  9.495385e-001  3.684748e-001 
3545000000  9.499945e-001  3.517286e-001 
3550000000  9.493603e-001  3.357718e-001 
3555000000  9.493893e-001  3.199938e-001 
3560000000  9.485654e-001  3.049292e-001 
3565000000  9.477034e-001  2.897883e-001 
3570000000  9.466933e-001  2.757379e-001 
3575000000  9.450296e-001  2.607096e-001 
3580000000  9.435805e-001  2.462796e-001 
3585000000  9.419575e-001  2.321225e-001 
3590000000  9.401512e-001  2.183461e-001 
3595000000  9.381614e-001  2.043890e-001 
3600000000  9.359241e-001  1.907103e-001 
3605000000  9.330330e-001  1.769935e-001 
3610000000  9.303310e-001  1.638764e-001 
3615000000  9.281811e-001  1.505781e-001 
3620000000  9.252451e-001  1.375341e-001 
3625000000  9.229081e-001  1.252129e-001 
3630000000  9.194549e-001  1.117670e-001 
3635000000  9.160692e-001  9.866425e-002 
3640000000  9.124944e-001  8.648924e-002 
3645000000  9.092408e-001  7.411146e-002 
3650000000  9.058404e-001  6.199648e-002 
3655000000  9.025322e-001  4.971134e-002 
3660000000  8.987394e-001  3.752359e-002 
3665000000  8.948570e-001  2.534809e-002 
3670000000  8.906684e-001  1.298039e-002 
3675000000  8.860796e-001  8.494094e-004 
3680000000  8.817370e-001  -1.153656e-002 
3685000000  8.771742e-001  -2.386019e-002 
3690000000  8.721811e-001  -3.614447e-002 
3695000000  8.672479e-001  -4.857268e-002 
3700000000  8.622866e-001  -6.071978e-002 
3705000000  8.575056e-001  -7.336359e-002 
3710000000  8.524007e-001  -8.572825e-002 
3715000000  8.472472e-001  -9.820247e-002 
3720000000  8.415513e-001  -1.103487e-001 
3725000000  8.367783e-001  -1.226696e-001 
3730000000  8.310223e-001  -1.353930e-001 
3735000000  8.254286e-001  -1.481250e-001 
3740000000  8.197193e-001  -1.609789e-001 
3745000000  8.134147e-001  -1.740241e-001 
3750000000  8.070713e-001  -1.864168e-001 
3755000000  8.004125e-001  -1.993412e-001 
3760000000  7.934806e-001  -2.117157e-001 
3765000000  7.868544e-001  -2.244742e-001 
3770000000  7.794320e-001  -2.378861e-001 
3775000000  7.720959e-001  -2.503136e-001 
3780000000  7.641779e-001  -2.633309e-001 
3785000000  7.562955e-001  -2.762464e-001 
3790000000  7.475905e-001  -2.888568e-001 
3795000000  7.393169e-001  -3.023145e-001 
3800000000  7.307194e-001  -3.154767e-001 
3805000000  7.209351e-001  -3.293958e-001 
3810000000  7.111760e-001  -3.417351e-001 
3815000000  7.012101e-001  -3.538527e-001 
3820000000  6.911830e-001  -3.671004e-001 
3825000000  6.802889e-001  -3.794890e-001 
3830000000  6.692267e-001  -3.927496e-001 
3835000000  6.580926e-001  -4.047569e-001 
3840000000  6.464402e-001  -4.167198e-001 
3845000000  6.343184e-001  -4.297653e-001 
3850000000  6.216107e-001  -4.420990e-001 
3855000000  6.081262e-001  -4.541940e-001 
3860000000  5.943505e-001  -4.663720e-001 
3865000000  5.800222e-001  -4.785791e-001 
3870000000  5.647347e-001  -4.903109e-001 
3875000000  5.487285e-001  -5.027851e-001 
3880000000  5.314249e-001  -5.148816e-001 
3885000000  5.140148e-001  -5.259320e-001 
3890000000  4.957455e-001  -5.362671e-001 
3895000000  4.766609e-001  -5.462682e-001 
3900000000  4.568887e-001  -5.564306e-001 
3905000000  4.370212e-001  -5.661839e-001 
3910000000  4.157911e-001  -5.751767e-001 
3915000000  3.936294e-001  -5.840142e-001 
3920000000  3.704951e-001  -5.920470e-001 
3925000000  3.464639e-001  -5.992118e-001 
3930000000  3.218730e-001  -6.056607e-001 
3935000000  2.962605e-001  -6.113199e-001 
3940000000  2.695619e-001  -6.161231e-001 
3945000000  2.418195e-001  -6.199402e-001 
3950000000  2.132113e-001  -6.223431e-001 
3955000000  1.834854e-001  -6.235926e-001 
3960000000  1.531826e-001  -6.233267e-001 
3965000000  1.224097e-001  -6.217324e-001 
3970000000  9.066271e-002  -6.188101e-001 
3975000000  5.848301e-002  -6.142048e-001 
3980000000  2.628725e-002  -6.078347e-001 
3985000000  -7.527457e-003  -6.002093e-001 
3990000000  -4.136349e-002  -5.901603e-001 
3995000000  -7.551391e-002  -5.774571e-001 
4000000000  -1.100059e-001  -5.624738e-001 
4005000000  -1.437008e-001  -5.449554e-001 
4010000000  -1.777485e-001  -5.245860e-001 
4015000000  -2.107841e-001  -5.015631e-001 
4020000000  -2.424035e-001  -4.755583e-001 
4025000000  -2.726386e-001  -4.468243e-001 
4030000000  -3.006109e-001  -4.167605e-001 
4035000000  -3.274521e-001  -3.842134e-001 
4040000000  -3.529555e-001  -3.494467e-001 
4045000000  -3.774559e-001  -3.112877e-001 
4050000000  -3.977753e-001  -2.704023e-001 
4055000000  -4.150124e-001  -2.274422e-001 
4060000000  -4.286809e-001  -1.837271e-001 
4065000000  -4.397301e-001  -1.386004e-001 
4070000000  -4.472723e-001  -9.184108e-002 
4075000000  -4.508537e-001  -4.395545e-002 
4080000000  -4.500084e-001  4.357480e-003 
4085000000  -4.442196e-001  5.281462e-002 
4090000000  -4.345969e-001  9.924559e-002 
4095000000  -4.219249e-001  1.449136e-001 
4100000000  -4.050574e-001  1.893226e-001 
4105000000  -3.852587e-001  2.315843e-001 
4110000000  -3.627267e-001  2.727933e-001 
4115000000  -3.362156e-001  3.114775e-001 
4120000000  -3.075701e-001  3.478273e-001 
4125000000  -2.763304e-001  3.813266e-001 
4130000000  -2.427391e-001  4.118189e-001 
4135000000  -2.083331e-001  4.392618e-001 
4140000000  -1.718554e-001  4.647360e-001 
4145000000  -1.337029e-001  4.857352e-001 
4150000000  -9.554861e-002  5.040590e-001 
4155000000  -5.643344e-002  5.194443e-001 
4160000000  -1.702236e-002  5.310366e-001 
4165000000  2.253376e-002  5.392914e-001 
4170000000  6.047952e-002  5.447103e-001 
4175000000  9.758408e-002  5.478674e-001 
4180000000  1.342417e-001  5.490623e-001 
4185000000  1.702704e-001  5.475361e-001 
4190000000  2.059481e-001  5.439117e-001 
4195000000  2.405060e-001  5.375285e-001 
4200000000  2.727282e-001  5.294344e-001 
4205000000  3.038310e-001  5.206044e-001 
4210000000  3.341638e-001  5.101507e-001 
4215000000  3.638257e-001  4.980317e-001 
4220000000  3.918420e-001  4.841888e-001 
4225000000  4.187871e-001  4.679824e-001 
4230000000  4.425200e-001  4.511975e-001 
4235000000  4.647731e-001  4.339168e-001 
4240000000  4.855314e-001  4.167635e-001 
4245000000  5.058584e-001  3.989093e-001 
4250000000  5.250406e-001  3.799034e-001 
4255000000  5.423959e-001  3.607133e-001 
4260000000  5.582937e-001  3.417000e-001 
4265000000  5.741162e-001  3.214036e-001 
4270000000  5.881577e-001  3.008674e-001 
4275000000  6.015829e-001  2.804359e-001 
4280000000  6.131895e-001  2.597196e-001 
4285000000  6.239593e-001  2.384873e-001 
4290000000  6.333347e-001  2.185318e-001 
4295000000  6.422602e-001  1.972629e-001 
4300000000  6.498969e-001  1.772768e-001 
4305000000  6.575012e-001  1.568596e-001 
4310000000  6.634243e-001  1.359631e-001 
4315000000  6.686472e-001  1.153878e-001 
4320000000  6.720009e-001  9.481782e-002 
4325000000  6.743772e-001  7.546137e-002 
4330000000  6.768201e-001  5.798912e-002 
4335000000  6.799428e-001  3.965671e-002 
4340000000  6.818115e-001  2.111837e-002 
4345000000  6.832196e-001  2.429819e-003 
4350000000  6.838832e-001  -1.552062e-002 
4355000000  6.837200e-001  -3.308876e-002 
4360000000  6.825191e-001  -5.109556e-002 
4365000000  6.810188e-001  -6.813876e-002 
4370000000  6.790447e-001  -8.463010e-002 
4375000000  6.769921e-001  -1.005762e-001 
4380000000  6.756709e-001  -1.166945e-001 
4385000000  6.732151e-001  -1.338893e-001 
4390000000  6.695709e-001  -1.503950e-001 
4395000000  6.651922e-001  -1.666519e-001 
4400000000  6.603028e-001  -1.829925e-001 
4405000000  6.551732e-001  -1.989451e-001 
4410000000  6.490374e-001  -2.133613e-001 
4415000000  6.430168e-001  -2.283210e-001 
4420000000  6.364393e-001  -2.431977e-001 
4425000000  6.293945e-001  -2.588675e-001 
4430000000  6.215598e-001  -2.733071e-001 
4435000000  6.129049e-001  -2.868456e-001 
4440000000  6.045128e-001  -3.010690e-001 
4445000000  5.942940e-001  -3.152445e-001 
4450000000  5.844214e-001  -3.278095e-001 
4455000000  5.738541e-001  -3.408189e-001 
4460000000  5.635831e-001  -3.523906e-001 
4465000000  5.526029e-001  -3.649427e-001 
4470000000  5.416299e-001  -3.766055e-001 
4475000000  5.296978e-001  -3.881869e-001 
4480000000  5.175583e-001  -3.987836e-001 
4485000000  5.049504e-001  -4.095492e-001 
4490000000  4.928006e-001  -4.189289e-001 
4495000000  4.796587e-001  -4.280512e-001 
4500000000  4.663566e-001  -4.359843e-001 
4505000000  4.538146e-001  -4.429636e-001 
4510000000  4.415183e-001  -4.493051e-001 
4515000000  4.287586e-001  -4.554693e-001 
4520000000  4.168455e-001  -4.605116e-001 
4525000000  4.045172e-001  -4.653132e-001 
4530000000  3.929465e-001  -4.684395e-001 
4535000000  3.820523e-001  -4.712205e-001 
4540000000  3.716497e-001  -4.736952e-001 
4545000000  3.624696e-001  -4.754426e-001 
4550000000  3.535628e-001  -4.771937e-001 
4555000000  3.447696e-001  -4.790481e-001 
4560000000  3.369080e-001  -4.804881e-001 
4565000000  3.295297e-001  -4.811438e-001 
4570000000  3.226127e-001  -4.819496e-001 
4575000000  3.170660e-001  -4.820321e-001 
4580000000  3.127652e-001  -4.826071e-001 
4585000000  3.091484e-001  -4.838663e-001 
4590000000  3.060138e-001  -4.861990e-001 
4595000000  3.034286e-001  -4.889905e-001 
4600000000  3.003795e-001  -4.932121e-001 
4605000000  2.976100e-001  -4.972751e-001 
4610000000  2.936682e-001  -5.027714e-001 
4615000000  2.896937e-001  -5.084668e-001 
4620000000  2.852254e-001  -5.142499e-001 
4625000000  2.806414e-001  -5.210793e-001 
4630000000  2.749048e-001  -5.283120e-001 
4635000000  2.686009e-001  -5.352430e-001 
4640000000  2.607621e-001  -5.430751e-001 
4645000000  2.529537e-001  -5.496784e-001 
4650000000  2.446305e-001  -5.565544e-001 
4655000000  2.361108e-001  -5.651518e-001 
4660000000  2.260463e-001  -5.737190e-001 
4665000000  2.146685e-001  -5.816255e-001 
4670000000  2.021930e-001  -5.886928e-001 
4675000000  1.901674e-001  -5.952155e-001 
4680000000  1.768869e-001  -6.024313e-001 
4685000000  1.628717e-001  -6.088090e-001 
4690000000  1.480176e-001  -6.141748e-001 
4695000000  1.327061e-001  -6.186807e-001 
4700000000  1.175387e-001  -6.232379e-001 
4705000000  1.024428e-001  -6.270195e-001 
4710000000  8.649606e-002  -6.305835e-001 
4715000000  7.014337e-002  -6.332348e-001 
4720000000  5.306373e-002  -6.348912e-001 
4725000000  3.732408e-002  -6.350602e-001 
4730000000  2.083296e-002  -6.353102e-001 
4735000000  5.290591e-003  -6.350150e-001 
4740000000  -1.049058e-002  -6.342266e-001 
4745000000  -2.471269e-002  -6.327162e-001 
4750000000  -3.982379e-002  -6.314436e-001 
4755000000  -5.410935e-002  -6.295467e-001 
4760000000  -6.838650e-002  -6.275688e-001 
4765000000  -8.210603e-002  -6.246225e-001 
4770000000  -9.494356e-002  -6.218984e-001 
4775000000  -1.064066e-001  -6.193296e-001 
4780000000  -1.177924e-001  -6.176907e-001 
4785000000  -1.286871e-001  -6.167144e-001 
4790000000  -1.404646e-001  -6.168005e-001 
4795000000  -1.541459e-001  -6.171465e-001 
4800000000  -1.669862e-001  -6.170957e-001 
4805000000  -1.821105e-001  -6.173838e-001 
4810000000  -1.979671e-001  -6.168547e-001 
4815000000  -2.146877e-001  -6.151327e-001 
4820000000  -2.312176e-001  -6.127492e-001 
4825000000  -2.480619e-001  -6.102912e-001 
4830000000  -2.660007e-001  -6.065962e-001 
4835000000  -2.845648e-001  -6.013976e-001 
4840000000  -3.030404e-001  -5.958220e-001 
4845000000  -3.214678e-001  -5.887598e-001 
4850000000  -3.405935e-001  -5.805799e-001 
4855000000  -3.591220e-001  -5.710580e-001 
4860000000  -3.773898e-001  -5.606647e-001 
4865000000  -3.946917e-001  -5.497390e-001 
4870000000  -4.120273e-001  -5.378792e-001 
4875000000  -4.292535e-001  -5.249263e-001 
4880000000  -4.454671e-001  -5.119139e-001 
4885000000  -4.623134e-001  -4.975228e-001 
4890000000  -4.776254e-001  -4.821225e-001 
4895000000  -4.923977e-001  -4.661847e-001 
4900000000  -5.064425e-001  -4.497570e-001 
4905000000  -5.199755e-001  -4.328229e-001 
4910000000  -5.333032e-001  -4.155202e-001 
4915000000  -5.460199e-001  -3.971392e-001 
4920000000  -5.577607e-001  -3.784368e-001 
4925000000  -5.685180e-001  -3.592852e-001 
4930000000  -5.784996e-001  -3.401420e-001 
4935000000  -5.882694e-001  -3.196231e-001 
4940000000  -5.968964e-001  -2.988180e-001 
4945000000  -6.042331e-001  -2.783268e-001 
4950000000  -6.105406e-001  -2.575478e-001 
4955000000  -6.161147e-001  -2.370891e-001 
4960000000  -6.209975e-001  -2.170929e-001 
4965000000  -6.262644e-001  -1.961844e-001 
4970000000  -6.308457e-001  -1.747289e-001 
4975000000  -6.346938e-001  -1.530205e-001 
4980000000  -6.374719e-001  -1.306107e-001 
4985000000  -6.390638e-001  -1.072974e-001 
4990000000  -6.396140e-001  -8.374177e-002 
4995000000  -6.385101e-001  -6.031821e-002 
5000000000  -6.364344e-001  -3.647338e-002 
5005000000  -6.329403e-001  -1.315958e-002 
5010000000  -6.286000e-001  9.915097e-003 
5015000000  -6.233379e-001  3.302255e-002 
5020000000  -6.171507e-001  5.579552e-002 
5025000000  -6.103734e-001  7.842795e-002 
5030000000  -6.029010e-001  1.010687e-001 
5035000000  -5.946826e-001  1.234849e-001 
5040000000  -5.848244e-001  1.472435e-001 
5045000000  -5.736202e-001  1.701322e-001 
5050000000  -5.608924e-001  1.920136e-001 
5055000000  -5.472233e-001  2.135445e-001 
5060000000  -5.323846e-001  2.344705e-001 
5065000000  -5.166996e-001  2.545016e-001 
5070000000  -4.995760e-001  2.735654e-001 
5075000000  -4.809814e-001  2.924710e-001 
5080000000  -4.617496e-001  3.090728e-001 
5085000000  -4.420578e-001  3.244188e-001 
5090000000  -4.223005e-001  3.386720e-001 
5095000000  -4.018071e-001  3.523015e-001 
5100000000  -3.807741e-001  3.647111e-001 
5105000000  -3.594713e-001  3.761804e-001 
5110000000  -3.376682e-001  3.873731e-001 
5115000000  -3.142854e-001  3.972589e-001 
5120000000  -2.897810e-001  4.052545e-001 
5125000000  -2.650022e-001  4.109232e-001 
5130000000  -2.404042e-001  4.144483e-001 
5135000000  -2.161131e-001  4.160832e-001 
5140000000  -1.918381e-001  4.161952e-001 
5145000000  -1.688878e-001  4.144410e-001 
5150000000  -1.456250e-001  4.118500e-001 
5155000000  -1.230178e-001  4.079283e-001 
5160000000  -1.007724e-001  4.021732e-001 
5165000000  -7.864330e-002  3.952549e-001 
5170000000  -5.700564e-002  3.867937e-001 
5175000000  -3.599337e-002  3.767950e-001 
5180000000  -1.596840e-002  3.651749e-001 
5185000000  3.170917e-003  3.520903e-001 
5190000000  2.126297e-002  3.375523e-001 
5195000000  3.760301e-002  3.222084e-001 
5200000000  5.299268e-002  3.061320e-001 
5205000000  6.729060e-002  2.888758e-001 
5210000000  8.049878e-002  2.708309e-001 
5215000000  9.147342e-002  2.512615e-001 
5220000000  1.006526e-001  2.318156e-001 
5225000000  1.089916e-001  2.125724e-001 
5230000000  1.161535e-001  1.923625e-001 
5235000000  1.215726e-001  1.712927e-001 
5240000000  1.250631e-001  1.503170e-001 
5245000000  1.269942e-001  1.289566e-001 
5250000000  1.263640e-001  1.075704e-001 
5255000000  1.238631e-001  8.712432e-002 
5260000000  1.199570e-001  6.737464e-002 
5265000000  1.141003e-001  4.795952e-002 
5270000000  1.062338e-001  3.023652e-002 
5275000000  9.814506e-002  1.432580e-002 
5280000000  8.964641e-002  -1.896170e-003 
5285000000  7.930733e-002  -1.770627e-002 
5290000000  6.697395e-002  -3.267729e-002 
5295000000  5.311316e-002  -4.561062e-002 
5300000000  3.881472e-002  -5.760108e-002 
5305000000  2.318004e-002  -6.859229e-002 
5310000000  5.387120e-003  -7.881411e-002 
5315000000  -1.469429e-002  -8.578865e-002 
5320000000  -3.413885e-002  -8.970954e-002 
5325000000  -5.357344e-002  -9.210601e-002 
5330000000  -7.265285e-002  -9.295607e-002 
5335000000  -9.229076e-002  -9.210768e-002 
5340000000  -1.113443e-001  -8.912489e-002 
5345000000  -1.293274e-001  -8.545367e-002 
5350000000  -1.472443e-001  -8.033735e-002 
5355000000  -1.651815e-001  -7.496849e-002 
5360000000  -1.836282e-001  -6.781452e-002 
5365000000  -2.019517e-001  -5.867114e-002 
5370000000  -2.197466e-001  -4.702143e-002 
5375000000  -2.356432e-001  -3.342684e-002 
5380000000  -2.504329e-001  -1.884041e-002 
5385000000  -2.639236e-001  -2.603714e-003 
5390000000  -2.755077e-001  1.489959e-002 
5395000000  -2.852965e-001  3.293014e-002 
5400000000  -2.940200e-001  5.226471e-002 
5405000000  -2.994815e-001  7.268379e-002 
5410000000  -3.028108e-001  9.224921e-002 
5415000000  -3.049226e-001  1.111640e-001 
5420000000  -3.058503e-001  1.296016e-001 
5425000000  -3.061651e-001  1.483311e-001 
5430000000  -3.053855e-001  1.674173e-001 
5435000000  -3.029225e-001  1.872257e-001 
5440000000  -2.982270e-001  2.069743e-001 
5445000000  -2.915473e-001  2.263552e-001 
5450000000  -2.833809e-001  2.447622e-001 
5455000000  -2.735770e-001  2.633986e-001 
5460000000  -2.611620e-001  2.812669e-001 
5465000000  -2.465988e-001  2.972423e-001 
5470000000  -2.311382e-001  3.111104e-001 
5475000000  -2.146375e-001  3.240482e-001 
5480000000  -1.972355e-001  3.348163e-001 
5485000000  -1.800629e-001  3.440183e-001 
5490000000  -1.629299e-001  3.522747e-001 
5495000000  -1.455641e-001  3.603062e-001 
5500000000  -1.269318e-001  3.676805e-001 
5505000000  -1.065371e-001  3.736667e-001 
5510000000  -8.542622e-002  3.764305e-001 
5515000000  -6.421372e-002  3.770678e-001 
5520000000  -4.400779e-002  3.752027e-001 
5525000000  -2.464174e-002  3.714219e-001 
5530000000  -6.246130e-003  3.659950e-001 
5535000000  1.146981e-002  3.587949e-001 
5540000000  2.769363e-002  3.496688e-001 
5545000000  4.253545e-002  3.388674e-001 
5550000000  5.552796e-002  3.264709e-001 
5555000000  6.634282e-002  3.127791e-001 
5560000000  7.492807e-002  2.988672e-001 
5565000000  8.240391e-002  2.840858e-001 
5570000000  8.759718e-002  2.679186e-001 
5575000000  9.008091e-002  2.509897e-001 
5580000000  8.957132e-002  2.341458e-001 
5585000000  8.704207e-002  2.174286e-001 
5590000000  8.083293e-002  2.011170e-001 
5595000000  7.205006e-002  1.857676e-001 
5600000000  5.997722e-002  1.724426e-001 
5605000000  4.613588e-002  1.620187e-001 
5610000000  3.149042e-002  1.538770e-001 
5615000000  1.632046e-002  1.472167e-001 
5620000000  -6.346182e-004  1.417903e-001 
5625000000  -1.924388e-002  1.392577e-001 
5630000000  -3.830936e-002  1.398970e-001 
5635000000  -5.696329e-002  1.434049e-001 
5640000000  -7.530446e-002  1.489513e-001 
5645000000  -9.250329e-002  1.574600e-001 
5650000000  -1.091344e-001  1.682864e-001 
5655000000  -1.240538e-001  1.815240e-001 
5660000000  -1.369942e-001  1.967414e-001 
5665000000  -1.484652e-001  2.138968e-001 
5670000000  -1.570349e-001  2.334011e-001 
5675000000  -1.625319e-001  2.535188e-001 
5680000000  -1.658010e-001  2.739960e-001 
5685000000  -1.665094e-001  2.949027e-001 
5690000000  -1.650010e-001  3.157799e-001 
5695000000  -1.613960e-001  3.363072e-001 
5700000000  -1.560980e-001  3.568204e-001 
5705000000  -1.489066e-001  3.771590e-001 
5710000000  -1.395186e-001  3.973606e-001 
5715000000  -1.278463e-001  4.171447e-001 
5720000000  -1.140756e-001  4.357645e-001 
5725000000  -9.857406e-002  4.526809e-001 
5730000000  -8.261284e-002  4.681999e-001 
5735000000  -6.467137e-002  4.830275e-001 
5740000000  -4.621744e-002  4.965505e-001 
5745000000  -2.628271e-002  5.090390e-001 
5750000000  -5.664827e-003  5.195135e-001 
5755000000  1.552091e-002  5.290501e-001 
5760000000  3.693536e-002  5.371612e-001 
5765000000  5.929351e-002  5.437419e-001 
5770000000  8.089919e-002  5.486961e-001 
5775000000  1.023773e-001  5.531858e-001 
5780000000  1.243178e-001  5.566467e-001 
5785000000  1.464519e-001  5.588173e-001 
5790000000  1.687085e-001  5.595824e-001 
5795000000  1.904626e-001  5.588198e-001 
5800000000  2.115283e-001  5.569389e-001 
5805000000  2.321330e-001  5.540709e-001 
5810000000  2.523309e-001  5.499555e-001 
5815000000  2.711309e-001  5.454010e-001 
5820000000  2.895404e-001  5.406300e-001 
5825000000  3.084067e-001  5.346700e-001 
5830000000  3.267319e-001  5.276129e-001 
5835000000  3.444437e-001  5.191580e-001 
5840000000  3.608780e-001  5.104341e-001 
5845000000  3.776939e-001  5.008621e-001 
5850000000  3.937608e-001  4.907479e-001 
5855000000  4.094497e-001  4.792788e-001 
5860000000  4.240197e-001  4.672883e-001 
5865000000  4.379886e-001  4.549236e-001 
5870000000  4.514936e-001  4.420455e-001 
5875000000  4.648262e-001  4.285425e-001 
5880000000  4.776529e-001  4.142506e-001 
5885000000  4.897858e-001  3.990871e-001 
5890000000  5.011407e-001  3.831508e-001 
5895000000  5.118334e-001  3.664419e-001 
5900000000  5.213169e-001  3.498201e-001 
5905000000  5.302767e-001  3.332578e-001 
5910000000  5.388108e-001  3.158138e-001 
5915000000  5.471414e-001  2.973399e-001 
5920000000  5.542447e-001  2.785775e-001 
5925000000  5.607664e-001  2.594680e-001 
5930000000  5.663986e-001  2.402813e-001 
5935000000  5.712529e-001  2.204775e-001 
5940000000  5.753229e-001  2.003553e-001 
5945000000  5.784115e-001  1.798517e-001 
5950000000  5.802053e-001  1.591313e-001 
5955000000  5.809949e-001  1.393234e-001 
5960000000  5.815506e-001  1.193691e-001 
5965000000  5.811589e-001  9.882057e-002 
5970000000  5.789583e-001  7.835668e-002 
5975000000  5.758255e-001  5.877943e-002 
5980000000  5.721620e-001  3.928756e-002 
5985000000  5.677423e-001  2.032096e-002 
5990000000  5.621550e-001  1.472445e-003 
5995000000  5.555285e-001  -1.719209e-002 
6000000000  5.476828e-001  -3.552995e-002 
