!Agilent Technologies,E8364B,MY43040633,A.07.50.37
!Agilent E8364B: A.07.50.37
!Date: Tuesday, December 16, 2025 17:30:23
!Correction: S11(Full 1 Port(1)) 
!S1P File: Measurement: S11:
# Hz S  RI   R 50
1000000000  2.210459e-001  9.624187e-001 
1005000000  2.326140e-001  9.587111e-001 
1010000000  2.448923e-001  9.559884e-001 
1015000000  2.577297e-001  9.521222e-001 
1020000000  2.699199e-001  9.487302e-001 
1025000000  2.822880e-001  9.447648e-001 
1030000000  2.948775e-001  9.403441e-001 
1035000000  3.071464e-001  9.361079e-001 
1040000000  3.193062e-001  9.318540e-001 
1045000000  3.308384e-001  9.270977e-001 
1050000000  3.439267e-001  9.228650e-001 
1055000000  3.559397e-001  9.174938e-001 
1060000000  3.678606e-001  9.131629e-001 
1065000000  3.800169e-001  9.076176e-001 
1070000000  3.920000e-001  9.028603e-001 
1075000000  4.041794e-001  8.979802e-001 
1080000000  4.170868e-001  8.916476e-001 
1085000000  4.285040e-001  8.860556e-001 
1090000000  4.401704e-001  8.797281e-001 
1095000000  4.521654e-001  8.731585e-001 
1100000000  4.637337e-001  8.665453e-001 
1105000000  4.753906e-001  8.603272e-001 
1110000000  4.866076e-001  8.541233e-001 
1115000000  4.982407e-001  8.471987e-001 
1120000000  5.092455e-001  8.401966e-001 
1125000000  5.210011e-001  8.331885e-001 
1130000000  5.326688e-001  8.249651e-001 
1135000000  5.435411e-001  8.178564e-001 
1140000000  5.545900e-001  8.102132e-001 
1145000000  5.656076e-001  8.020930e-001 
1150000000  5.757050e-001  7.942159e-001 
1155000000  5.862761e-001  7.861210e-001 
1160000000  5.978037e-001  7.782556e-001 
1165000000  6.071882e-001  7.698230e-001 
1170000000  6.172997e-001  7.615247e-001 
1175000000  6.281681e-001  7.528116e-001 
1180000000  6.385985e-001  7.446005e-001 
1185000000  6.480953e-001  7.360343e-001 
1190000000  6.584472e-001  7.262361e-001 
1195000000  6.679259e-001  7.173453e-001 
1200000000  6.775222e-001  7.080400e-001 
1205000000  6.862924e-001  6.989364e-001 
1210000000  6.957330e-001  6.889073e-001 
1215000000  7.040780e-001  6.793820e-001 
1220000000  7.138373e-001  6.689667e-001 
1225000000  7.218080e-001  6.593199e-001 
1230000000  7.296658e-001  6.493937e-001 
1235000000  7.384105e-001  6.391612e-001 
1240000000  7.471774e-001  6.288554e-001 
1245000000  7.545958e-001  6.189293e-001 
1250000000  7.619964e-001  6.087905e-001 
1255000000  7.700027e-001  5.982507e-001 
1260000000  7.782130e-001  5.871655e-001 
1265000000  7.864815e-001  5.765980e-001 
1270000000  7.937657e-001  5.658771e-001 
1275000000  8.011265e-001  5.545195e-001 
1280000000  8.079704e-001  5.439120e-001 
1285000000  8.152317e-001  5.327071e-001 
1290000000  8.223816e-001  5.213337e-001 
1295000000  8.290242e-001  5.098422e-001 
1300000000  8.363113e-001  4.978786e-001 
1305000000  8.431846e-001  4.863012e-001 
1310000000  8.496015e-001  4.742949e-001 
1315000000  8.561916e-001  4.618784e-001 
1320000000  8.630332e-001  4.494284e-001 
1325000000  8.685212e-001  4.370337e-001 
1330000000  8.748695e-001  4.242381e-001 
1335000000  8.808206e-001  4.113334e-001 
1340000000  8.865936e-001  3.987014e-001 
1345000000  8.920849e-001  3.857844e-001 
1350000000  8.979270e-001  3.719585e-001 
1355000000  9.028903e-001  3.584195e-001 
1360000000  9.073408e-001  3.456371e-001 
1365000000  9.113210e-001  3.323428e-001 
1370000000  9.158891e-001  3.182365e-001 
1375000000  9.205510e-001  3.051122e-001 
1380000000  9.245788e-001  2.910457e-001 
1385000000  9.280611e-001  2.780890e-001 
1390000000  9.314874e-001  2.643950e-001 
1395000000  9.348322e-001  2.514457e-001 
1400000000  9.396015e-001  2.371909e-001 
1405000000  9.424696e-001  2.233634e-001 
1410000000  9.458302e-001  2.092461e-001 
1415000000  9.491842e-001  1.945713e-001 
1420000000  9.505748e-001  1.812776e-001 
1425000000  9.528870e-001  1.672322e-001 
1430000000  9.558541e-001  1.529215e-001 
1435000000  9.580401e-001  1.376328e-001 
1440000000  9.598477e-001  1.232973e-001 
1445000000  9.603402e-001  1.095454e-001 
1450000000  9.619387e-001  9.489384e-002 
1455000000  9.623930e-001  8.085507e-002 
1460000000  9.630724e-001  6.671695e-002 
1465000000  9.641181e-001  5.172545e-002 
1470000000  9.649270e-001  3.676473e-002 
1475000000  9.645224e-001  2.273593e-002 
1480000000  9.652060e-001  7.849736e-003 
1485000000  9.646372e-001  -6.382419e-003 
1490000000  9.641630e-001  -2.123391e-002 
1495000000  9.640641e-001  -3.574246e-002 
1500000000  9.629287e-001  -5.068737e-002 
1505000000  9.614828e-001  -6.557689e-002 
1510000000  9.602952e-001  -8.062859e-002 
1515000000  9.585901e-001  -9.441136e-002 
1520000000  9.563821e-001  -1.082594e-001 
1525000000  9.543657e-001  -1.225211e-001 
1530000000  9.525153e-001  -1.370099e-001 
1535000000  9.504611e-001  -1.515537e-001 
1540000000  9.487490e-001  -1.667331e-001 
1545000000  9.461673e-001  -1.808724e-001 
1550000000  9.432743e-001  -1.971461e-001 
1555000000  9.399402e-001  -2.112789e-001 
1560000000  9.362778e-001  -2.260972e-001 
1565000000  9.327134e-001  -2.408284e-001 
1570000000  9.285898e-001  -2.553242e-001 
1575000000  9.241702e-001  -2.704348e-001 
1580000000  9.193498e-001  -2.833045e-001 
1585000000  9.146743e-001  -2.979437e-001 
1590000000  9.095999e-001  -3.112058e-001 
1595000000  9.045134e-001  -3.253598e-001 
1600000000  8.994846e-001  -3.389583e-001 
1605000000  8.941926e-001  -3.520062e-001 
1610000000  8.884579e-001  -3.655830e-001 
1615000000  8.825485e-001  -3.790729e-001 
1620000000  8.765093e-001  -3.928531e-001 
1625000000  8.698581e-001  -4.066604e-001 
1630000000  8.636327e-001  -4.191298e-001 
1635000000  8.570548e-001  -4.318219e-001 
1640000000  8.503643e-001  -4.440378e-001 
1645000000  8.431709e-001  -4.580433e-001 
1650000000  8.358430e-001  -4.706154e-001 
1655000000  8.286054e-001  -4.828091e-001 
1660000000  8.211776e-001  -4.954804e-001 
1665000000  8.132201e-001  -5.081826e-001 
1670000000  8.050970e-001  -5.200683e-001 
1675000000  7.968415e-001  -5.322251e-001 
1680000000  7.881868e-001  -5.445364e-001 
1685000000  7.789509e-001  -5.582090e-001 
1690000000  7.695220e-001  -5.705259e-001 
1695000000  7.605665e-001  -5.821403e-001 
1700000000  7.508371e-001  -5.938948e-001 
1705000000  7.407276e-001  -6.057069e-001 
1710000000  7.306370e-001  -6.173275e-001 
1715000000  7.202960e-001  -6.290500e-001 
1720000000  7.097667e-001  -6.406335e-001 
1725000000  6.987852e-001  -6.519740e-001 
1730000000  6.875721e-001  -6.630921e-001 
1735000000  6.761097e-001  -6.747658e-001 
1740000000  6.653204e-001  -6.843683e-001 
1745000000  6.533717e-001  -6.958442e-001 
1750000000  6.417821e-001  -7.058948e-001 
1755000000  6.292936e-001  -7.168885e-001 
1760000000  6.169368e-001  -7.268083e-001 
1765000000  6.046130e-001  -7.367215e-001 
1770000000  5.920779e-001  -7.465541e-001 
1775000000  5.794240e-001  -7.559704e-001 
1780000000  5.667403e-001  -7.652508e-001 
1785000000  5.540475e-001  -7.743122e-001 
1790000000  5.413758e-001  -7.832336e-001 
1795000000  5.282659e-001  -7.918720e-001 
1800000000  5.152712e-001  -8.003006e-001 
1805000000  5.019960e-001  -8.085127e-001 
1810000000  4.887613e-001  -8.166489e-001 
1815000000  4.758052e-001  -8.242561e-001 
1820000000  4.616113e-001  -8.321915e-001 
1825000000  4.478853e-001  -8.394564e-001 
1830000000  4.343638e-001  -8.464159e-001 
1835000000  4.205781e-001  -8.533528e-001 
1840000000  4.060778e-001  -8.601658e-001 
1845000000  3.926772e-001  -8.660912e-001 
1850000000  3.787469e-001  -8.721511e-001 
1855000000  3.642752e-001  -8.786523e-001 
1860000000  3.504398e-001  -8.836179e-001 
1865000000  3.360606e-001  -8.893883e-001 
1870000000  3.214960e-001  -8.941442e-001 
1875000000  3.068352e-001  -8.993096e-001 
1880000000  2.920493e-001  -9.039850e-001 
1885000000  2.772047e-001  -9.080844e-001 
1890000000  2.622117e-001  -9.125887e-001 
1895000000  2.470535e-001  -9.163665e-001 
1900000000  2.317392e-001  -9.199303e-001 
1905000000  2.163967e-001  -9.233758e-001 
1910000000  2.004073e-001  -9.268711e-001 
1915000000  1.852514e-001  -9.298471e-001 
1920000000  1.694740e-001  -9.324586e-001 
1925000000  1.534476e-001  -9.350787e-001 
1930000000  1.380252e-001  -9.372856e-001 
1935000000  1.210969e-001  -9.390957e-001 
1940000000  1.048407e-001  -9.407992e-001 
1945000000  8.851408e-002  -9.420817e-001 
1950000000  7.214876e-002  -9.430728e-001 
1955000000  5.629021e-002  -9.438733e-001 
1960000000  3.908865e-002  -9.439628e-001 
1965000000  2.264905e-002  -9.439973e-001 
1970000000  6.483962e-003  -9.436486e-001 
1975000000  -9.935998e-003  -9.432279e-001 
1980000000  -2.608830e-002  -9.427267e-001 
1985000000  -4.237772e-002  -9.417605e-001 
1990000000  -5.888815e-002  -9.404442e-001 
1995000000  -7.493360e-002  -9.389962e-001 
2000000000  -9.119558e-002  -9.370526e-001 
2005000000  -1.074181e-001  -9.347320e-001 
2010000000  -1.231392e-001  -9.322603e-001 
2015000000  -1.389567e-001  -9.295137e-001 
2020000000  -1.544716e-001  -9.265932e-001 
2025000000  -1.696716e-001  -9.232752e-001 
2030000000  -1.848149e-001  -9.195434e-001 
2035000000  -1.998003e-001  -9.159864e-001 
2040000000  -2.144608e-001  -9.120424e-001 
2045000000  -2.291932e-001  -9.080129e-001 
2050000000  -2.438231e-001  -9.037650e-001 
2055000000  -2.582228e-001  -8.992233e-001 
2060000000  -2.726370e-001  -8.944371e-001 
2065000000  -2.870565e-001  -8.893619e-001 
2070000000  -3.012257e-001  -8.840955e-001 
2075000000  -3.150218e-001  -8.782840e-001 
2080000000  -3.288597e-001  -8.725860e-001 
2085000000  -3.425674e-001  -8.667189e-001 
2090000000  -3.562373e-001  -8.607807e-001 
2095000000  -3.698392e-001  -8.544769e-001 
2100000000  -3.836336e-001  -8.480399e-001 
2105000000  -3.970710e-001  -8.414117e-001 
2110000000  -4.105999e-001  -8.352805e-001 
2115000000  -4.246393e-001  -8.276576e-001 
2120000000  -4.383489e-001  -8.203159e-001 
2125000000  -4.521057e-001  -8.127335e-001 
2130000000  -4.656387e-001  -8.046752e-001 
2135000000  -4.789361e-001  -7.962131e-001 
2140000000  -4.924152e-001  -7.876288e-001 
2145000000  -5.054227e-001  -7.785413e-001 
2150000000  -5.183005e-001  -7.694466e-001 
2155000000  -5.312280e-001  -7.600887e-001 
2160000000  -5.435563e-001  -7.501835e-001 
2165000000  -5.566084e-001  -7.405420e-001 
2170000000  -5.689641e-001  -7.306362e-001 
2175000000  -5.812377e-001  -7.203571e-001 
2180000000  -5.934963e-001  -7.100524e-001 
2185000000  -6.052561e-001  -6.997808e-001 
2190000000  -6.171004e-001  -6.885127e-001 
2195000000  -6.288553e-001  -6.774687e-001 
2200000000  -6.399555e-001  -6.660987e-001 
2205000000  -6.510478e-001  -6.550602e-001 
2210000000  -6.617938e-001  -6.437939e-001 
2215000000  -6.729074e-001  -6.322092e-001 
2220000000  -6.832486e-001  -6.201686e-001 
2225000000  -6.932740e-001  -6.080773e-001 
2230000000  -7.027878e-001  -5.961418e-001 
2235000000  -7.120114e-001  -5.840616e-001 
2240000000  -7.210888e-001  -5.719131e-001 
2245000000  -7.300161e-001  -5.597876e-001 
2250000000  -7.383607e-001  -5.475266e-001 
2255000000  -7.467454e-001  -5.351864e-001 
2260000000  -7.550294e-001  -5.225863e-001 
2265000000  -7.629303e-001  -5.097364e-001 
2270000000  -7.704687e-001  -4.969225e-001 
2275000000  -7.779467e-001  -4.838881e-001 
2280000000  -7.850775e-001  -4.709601e-001 
2285000000  -7.920126e-001  -4.577501e-001 
2290000000  -7.987928e-001  -4.443671e-001 
2295000000  -8.051918e-001  -4.310548e-001 
2300000000  -8.114942e-001  -4.175828e-001 
2305000000  -8.178167e-001  -4.041827e-001 
2310000000  -8.240185e-001  -3.903382e-001 
2315000000  -8.297796e-001  -3.761958e-001 
2320000000  -8.354077e-001  -3.619680e-001 
2325000000  -8.409401e-001  -3.477091e-001 
2330000000  -8.458046e-001  -3.332563e-001 
2335000000  -8.506406e-001  -3.183746e-001 
2340000000  -8.550201e-001  -3.033815e-001 
2345000000  -8.590413e-001  -2.886524e-001 
2350000000  -8.632845e-001  -2.737809e-001 
2355000000  -8.673484e-001  -2.589401e-001 
2360000000  -8.714128e-001  -2.435981e-001 
2365000000  -8.750984e-001  -2.279658e-001 
2370000000  -8.779883e-001  -2.121696e-001 
2375000000  -8.813429e-001  -1.963242e-001 
2380000000  -8.845415e-001  -1.801857e-001 
2385000000  -8.872276e-001  -1.641294e-001 
2390000000  -8.895284e-001  -1.480823e-001 
2395000000  -8.915062e-001  -1.319126e-001 
2400000000  -8.934482e-001  -1.155042e-001 
2405000000  -8.946111e-001  -9.925581e-002 
2410000000  -8.958569e-001  -8.336452e-002 
2415000000  -8.969202e-001  -6.719319e-002 
2420000000  -8.975359e-001  -5.077827e-002 
2425000000  -8.978466e-001  -3.439589e-002 
2430000000  -8.974440e-001  -1.815566e-002 
2435000000  -8.976783e-001  -2.081852e-003 
2440000000  -8.971869e-001  1.424591e-002 
2445000000  -8.960615e-001  3.052263e-002 
2450000000  -8.950963e-001  4.756791e-002 
2455000000  -8.935378e-001  6.327984e-002 
2460000000  -8.916216e-001  7.999460e-002 
2465000000  -8.891032e-001  9.630363e-002 
2470000000  -8.857838e-001  1.122546e-001 
2475000000  -8.828057e-001  1.284473e-001 
2480000000  -8.795830e-001  1.447023e-001 
2485000000  -8.761505e-001  1.607673e-001 
2490000000  -8.726423e-001  1.769744e-001 
2495000000  -8.678864e-001  1.928816e-001 
2500000000  -8.635467e-001  2.091789e-001 
2505000000  -8.589939e-001  2.258293e-001 
2510000000  -8.539063e-001  2.421932e-001 
2515000000  -8.483434e-001  2.589885e-001 
2520000000  -8.423490e-001  2.753110e-001 
2525000000  -8.353206e-001  2.917644e-001 
2530000000  -8.281003e-001  3.084596e-001 
2535000000  -8.203143e-001  3.241449e-001 
2540000000  -8.124382e-001  3.413852e-001 
2545000000  -8.045023e-001  3.583066e-001 
2550000000  -7.956465e-001  3.752558e-001 
2555000000  -7.862264e-001  3.915710e-001 
2560000000  -7.764754e-001  4.074839e-001 
2565000000  -7.666101e-001  4.239112e-001 
2570000000  -7.566543e-001  4.407888e-001 
2575000000  -7.459459e-001  4.578010e-001 
2580000000  -7.341942e-001  4.746615e-001 
2585000000  -7.218204e-001  4.910770e-001 
2590000000  -7.091333e-001  5.072336e-001 
2595000000  -6.957487e-001  5.231186e-001 
2600000000  -6.822353e-001  5.389157e-001 
2605000000  -6.685008e-001  5.546730e-001 
2610000000  -6.543528e-001  5.706297e-001 
2615000000  -6.388258e-001  5.863765e-001 
2620000000  -6.226174e-001  6.016173e-001 
2625000000  -6.059947e-001  6.166174e-001 
2630000000  -5.886809e-001  6.309394e-001 
2635000000  -5.709968e-001  6.449831e-001 
2640000000  -5.529281e-001  6.588469e-001 
2645000000  -5.339986e-001  6.727306e-001 
2650000000  -5.141137e-001  6.860678e-001 
2655000000  -4.934190e-001  6.988919e-001 
2660000000  -4.719788e-001  7.109594e-001 
2665000000  -4.501464e-001  7.224902e-001 
2670000000  -4.275785e-001  7.333029e-001 
2675000000  -4.045288e-001  7.437975e-001 
2680000000  -3.807217e-001  7.542604e-001 
2685000000  -3.555836e-001  7.636698e-001 
2690000000  -3.297830e-001  7.719788e-001 
2695000000  -3.030189e-001  7.794369e-001 
2700000000  -2.755049e-001  7.869489e-001 
2705000000  -2.467851e-001  7.939599e-001 
2710000000  -2.165079e-001  7.994763e-001 
2715000000  -1.848601e-001  8.034281e-001 
2720000000  -1.521751e-001  8.055479e-001 
2725000000  -1.192496e-001  8.057539e-001 
2730000000  -8.511253e-002  8.043810e-001 
2735000000  -5.136697e-002  8.007596e-001 
2740000000  -1.778807e-002  7.965905e-001 
2745000000  1.593534e-002  7.909676e-001 
2750000000  5.322067e-002  7.837276e-001 
2755000000  8.946972e-002  7.739374e-001 
2760000000  1.251621e-001  7.623698e-001 
2765000000  1.633159e-001  7.490044e-001 
2770000000  2.014691e-001  7.322561e-001 
2775000000  2.389534e-001  7.122036e-001 
2780000000  2.748784e-001  6.892066e-001 
2785000000  3.099417e-001  6.648800e-001 
2790000000  3.458766e-001  6.377494e-001 
2795000000  3.786890e-001  6.064801e-001 
2800000000  4.089551e-001  5.722511e-001 
2805000000  4.378226e-001  5.377942e-001 
2810000000  4.665898e-001  5.003208e-001 
2815000000  4.917551e-001  4.596536e-001 
2820000000  5.146401e-001  4.175648e-001 
2825000000  5.339882e-001  3.733469e-001 
2830000000  5.506666e-001  3.291478e-001 
2835000000  5.657986e-001  2.824033e-001 
2840000000  5.776686e-001  2.335956e-001 
2845000000  5.847863e-001  1.837002e-001 
2850000000  5.875450e-001  1.325524e-001 
2855000000  5.859172e-001  8.191805e-002 
2860000000  5.814106e-001  3.230253e-002 
2865000000  5.730923e-001  -1.636752e-002 
2870000000  5.622410e-001  -6.411024e-002 
2875000000  5.480602e-001  -1.118210e-001 
2880000000  5.298614e-001  -1.577339e-001 
2885000000  5.095903e-001  -2.017163e-001 
2890000000  4.860729e-001  -2.445040e-001 
2895000000  4.596580e-001  -2.850129e-001 
2900000000  4.309066e-001  -3.235642e-001 
2905000000  3.998907e-001  -3.599530e-001 
2910000000  3.663808e-001  -3.935710e-001 
2915000000  3.316123e-001  -4.237889e-001 
2920000000  2.958043e-001  -4.515779e-001 
2925000000  2.587025e-001  -4.770040e-001 
2930000000  2.205042e-001  -4.990360e-001 
2935000000  1.831051e-001  -5.188326e-001 
2940000000  1.447458e-001  -5.366231e-001 
2945000000  1.061085e-001  -5.525830e-001 
2950000000  6.666716e-002  -5.658302e-001 
2955000000  2.720362e-002  -5.761095e-001 
2960000000  -1.107726e-002  -5.839228e-001 
2965000000  -4.904920e-002  -5.903372e-001 
2970000000  -8.733755e-002  -5.943732e-001 
2975000000  -1.237508e-001  -5.966036e-001 
2980000000  -1.604148e-001  -5.971605e-001 
2985000000  -1.957590e-001  -5.953765e-001 
2990000000  -2.300081e-001  -5.925379e-001 
2995000000  -2.637706e-001  -5.886614e-001 
3000000000  -2.966430e-001  -5.834868e-001 
3005000000  -3.280332e-001  -5.774579e-001 
3010000000  -3.593422e-001  -5.708095e-001 
3015000000  -3.900936e-001  -5.626341e-001 
3020000000  -4.199001e-001  -5.533333e-001 
3025000000  -4.486553e-001  -5.429802e-001 
3030000000  -4.761601e-001  -5.318300e-001 
3035000000  -5.024578e-001  -5.206102e-001 
3040000000  -5.294865e-001  -5.087280e-001 
3045000000  -5.561469e-001  -4.957711e-001 
3050000000  -5.820879e-001  -4.817692e-001 
3055000000  -6.073108e-001  -4.668912e-001 
3060000000  -6.307226e-001  -4.521293e-001 
3065000000  -6.539541e-001  -4.363997e-001 
3070000000  -6.763182e-001  -4.207424e-001 
3075000000  -6.982356e-001  -4.046767e-001 
3080000000  -7.188138e-001  -3.892440e-001 
3085000000  -7.406624e-001  -3.723672e-001 
3090000000  -7.624126e-001  -3.551299e-001 
3095000000  -7.855775e-001  -3.360344e-001 
3100000000  -8.081547e-001  -3.155818e-001 
3105000000  -8.296269e-001  -2.953376e-001 
3110000000  -8.489218e-001  -2.763681e-001 
3115000000  -8.666868e-001  -2.588909e-001 
3120000000  -8.858092e-001  -2.382916e-001 
3125000000  -9.045728e-001  -2.167498e-001 
3130000000  -9.233899e-001  -1.936827e-001 
3135000000  -9.416423e-001  -1.692473e-001 
3140000000  -9.598007e-001  -1.421638e-001 
3145000000  -9.772991e-001  -1.189335e-001 
3150000000  -9.945071e-001  -9.314404e-002 
3155000000  -1.012052e+000  -7.082526e-002 
3160000000  -1.030090e+000  -5.039717e-002 
3165000000  -1.047279e+000  -2.416757e-002 
3170000000  -1.065023e+000  2.742335e-004 
3175000000  -1.081336e+000  2.606726e-002 
3180000000  -1.097368e+000  5.358273e-002 
3185000000  -1.112277e+000  8.474396e-002 
3190000000  -1.126422e+000  1.156561e-001 
3195000000  -1.138833e+000  1.482596e-001 
3200000000  -1.152226e+000  1.826771e-001 
3205000000  -1.162785e+000  2.158804e-001 
3210000000  -1.173261e+000  2.505711e-001 
3215000000  -1.169691e+000  2.969377e-001 
3220000000  -1.172099e+000  3.358856e-001 
3225000000  -1.178370e+000  3.707182e-001 
3230000000  -1.188692e+000  4.034602e-001 
3235000000  -1.200493e+000  4.366081e-001 
3240000000  -1.204473e+000  4.745351e-001 
3245000000  -1.203408e+000  5.134545e-001 
3250000000  -1.200288e+000  5.564657e-001 
3255000000  -1.198225e+000  5.971946e-001 
3260000000  -1.193556e+000  6.380301e-001 
3265000000  -1.187550e+000  6.793430e-001 
3270000000  -1.179662e+000  7.208391e-001 
3275000000  -1.170304e+000  7.618830e-001 
3280000000  -1.159377e+000  8.027253e-001 
3285000000  -1.146108e+000  8.437073e-001 
3290000000  -1.131877e+000  8.842907e-001 
3295000000  -1.117571e+000  9.262524e-001 
3300000000  -1.103362e+000  9.702500e-001 
3305000000  -1.077615e+000  1.009731e+000 
3310000000  -1.050134e+000  1.049428e+000 
3315000000  -1.021426e+000  1.087592e+000 
3320000000  -9.919476e-001  1.123798e+000 
3325000000  -9.606879e-001  1.158720e+000 
3330000000  -9.279013e-001  1.192819e+000 
3335000000  -8.936767e-001  1.225697e+000 
3340000000  -8.570102e-001  1.257560e+000 
3345000000  -8.179577e-001  1.288082e+000 
3350000000  -7.768371e-001  1.315761e+000 
3355000000  -7.345645e-001  1.341245e+000 
3360000000  -6.908135e-001  1.365106e+000 
3365000000  -6.462395e-001  1.385966e+000 
3370000000  -6.015478e-001  1.403409e+000 
3375000000  -5.552558e-001  1.418265e+000 
3380000000  -5.092559e-001  1.431441e+000 
3385000000  -4.637670e-001  1.441930e+000 
3390000000  -4.193950e-001  1.449524e+000 
3395000000  -3.736136e-001  1.459608e+000 
3400000000  -3.265131e-001  1.472445e+000 
3405000000  -2.827840e-001  1.469252e+000 
3410000000  -2.384707e-001  1.467200e+000 
3415000000  -1.953278e-001  1.463841e+000 
3420000000  -1.525780e-001  1.459802e+000 
3425000000  -1.111097e-001  1.453599e+000 
3430000000  -7.108280e-002  1.446005e+000 
3435000000  -3.171216e-002  1.436503e+000 
3440000000  5.968306e-003  1.424877e+000 
3445000000  4.113725e-002  1.412408e+000 
3450000000  7.586148e-002  1.399809e+000 
3455000000  1.068532e-001  1.386752e+000 
3460000000  1.391408e-001  1.373793e+000 
3465000000  1.676326e-001  1.360239e+000 
3470000000  1.972775e-001  1.345947e+000 
3475000000  2.270650e-001  1.330528e+000 
3480000000  2.537431e-001  1.314265e+000 
3485000000  2.796012e-001  1.296858e+000 
3490000000  3.018959e-001  1.280031e+000 
3495000000  3.242898e-001  1.263064e+000 
3500000000  3.454326e-001  1.245640e+000 
3505000000  3.655210e-001  1.228109e+000 
3510000000  3.842726e-001  1.211123e+000 
3515000000  4.022513e-001  1.194016e+000 
3520000000  4.195702e-001  1.176776e+000 
3525000000  4.357840e-001  1.160116e+000 
3530000000  4.515601e-001  1.143325e+000 
3535000000  4.663736e-001  1.127123e+000 
3540000000  4.819306e-001  1.110788e+000 
3545000000  4.954033e-001  1.094445e+000 
3550000000  5.086142e-001  1.077766e+000 
3555000000  5.217323e-001  1.061446e+000 
3560000000  5.335171e-001  1.044486e+000 
3565000000  5.448862e-001  1.027787e+000 
3570000000  5.549347e-001  1.011721e+000 
3575000000  5.654055e-001  9.945684e-001 
3580000000  5.749653e-001  9.785797e-001 
3585000000  5.845803e-001  9.626961e-001 
3590000000  5.936359e-001  9.472869e-001 
3595000000  6.027850e-001  9.315067e-001 
3600000000  6.118889e-001  9.158843e-001 
3605000000  6.208528e-001  8.998188e-001 
3610000000  6.292685e-001  8.836905e-001 
3615000000  6.379212e-001  8.679022e-001 
3620000000  6.461097e-001  8.515618e-001 
3625000000  6.532677e-001  8.362732e-001 
3630000000  6.608881e-001  8.193005e-001 
3635000000  6.672195e-001  8.036228e-001 
3640000000  6.743149e-001  7.875984e-001 
3645000000  6.809272e-001  7.725953e-001 
3650000000  6.878134e-001  7.572423e-001 
3655000000  6.943065e-001  7.424982e-001 
3660000000  6.999356e-001  7.279835e-001 
3665000000  7.055540e-001  7.130397e-001 
3670000000  7.114483e-001  6.979730e-001 
3675000000  7.165417e-001  6.829044e-001 
3680000000  7.217543e-001  6.683686e-001 
3685000000  7.270592e-001  6.535218e-001 
3690000000  7.315565e-001  6.385028e-001 
3695000000  7.357859e-001  6.235974e-001 
3700000000  7.395100e-001  6.096221e-001 
3705000000  7.437086e-001  5.958030e-001 
3710000000  7.472309e-001  5.821912e-001 
3715000000  7.508638e-001  5.690776e-001 
3720000000  7.547122e-001  5.553886e-001 
3725000000  7.579526e-001  5.437259e-001 
3730000000  7.617853e-001  5.298690e-001 
3735000000  7.651283e-001  5.169025e-001 
3740000000  7.682731e-001  5.042325e-001 
3745000000  7.706650e-001  4.912877e-001 
3750000000  7.727258e-001  4.785392e-001 
3755000000  7.747955e-001  4.662838e-001 
3760000000  7.761744e-001  4.544983e-001 
3765000000  7.779314e-001  4.430608e-001 
3770000000  7.795730e-001  4.314246e-001 
3775000000  7.809944e-001  4.198686e-001 
3780000000  7.823403e-001  4.084151e-001 
3785000000  7.840691e-001  3.977568e-001 
3790000000  7.855233e-001  3.857981e-001 
3795000000  7.872921e-001  3.740221e-001 
3800000000  7.886472e-001  3.624982e-001 
3805000000  7.897288e-001  3.501198e-001 
3810000000  7.907158e-001  3.380439e-001 
3815000000  7.908433e-001  3.260976e-001 
3820000000  7.915284e-001  3.143775e-001 
3825000000  7.919219e-001  3.027437e-001 
3830000000  7.929605e-001  2.905097e-001 
3835000000  7.933365e-001  2.781751e-001 
3840000000  7.932735e-001  2.656839e-001 
3845000000  7.936757e-001  2.531503e-001 
3850000000  7.934433e-001  2.407911e-001 
3855000000  7.933756e-001  2.274273e-001 
3860000000  7.929363e-001  2.140157e-001 
3865000000  7.921489e-001  2.002940e-001 
3870000000  7.908798e-001  1.862865e-001 
3875000000  7.895765e-001  1.718055e-001 
3880000000  7.863151e-001  1.564387e-001 
3885000000  7.836639e-001  1.435223e-001 
3890000000  7.809454e-001  1.291838e-001 
3895000000  7.781100e-001  1.151962e-001 
3900000000  7.756345e-001  1.007224e-001 
3905000000  7.729144e-001  8.649630e-002 
3910000000  7.692102e-001  7.182317e-002 
3915000000  7.650292e-001  5.624755e-002 
3920000000  7.607162e-001  4.200255e-002 
3925000000  7.560112e-001  2.713974e-002 
3930000000  7.507544e-001  1.239756e-002 
3935000000  7.451786e-001  -2.042775e-003 
3940000000  7.389350e-001  -1.742590e-002 
3945000000  7.324310e-001  -3.178372e-002 
3950000000  7.252112e-001  -4.664201e-002 
3955000000  7.176589e-001  -6.196379e-002 
3960000000  7.092050e-001  -7.694580e-002 
3965000000  6.998906e-001  -9.216084e-002 
3970000000  6.903042e-001  -1.065446e-001 
3975000000  6.795549e-001  -1.210122e-001 
3980000000  6.685194e-001  -1.353142e-001 
3985000000  6.561506e-001  -1.496782e-001 
3990000000  6.435193e-001  -1.637593e-001 
3995000000  6.302234e-001  -1.774736e-001 
4000000000  6.162431e-001  -1.909207e-001 
4005000000  6.009046e-001  -2.043332e-001 
4010000000  5.845686e-001  -2.175058e-001 
4015000000  5.670540e-001  -2.299698e-001 
4020000000  5.487705e-001  -2.411593e-001 
4025000000  5.294383e-001  -2.519380e-001 
4030000000  5.092942e-001  -2.621101e-001 
4035000000  4.883383e-001  -2.715742e-001 
4040000000  4.661189e-001  -2.801750e-001 
4045000000  4.421301e-001  -2.885267e-001 
4050000000  4.168375e-001  -2.942606e-001 
4055000000  3.908269e-001  -2.992923e-001 
4060000000  3.630733e-001  -3.027735e-001 
4065000000  3.340360e-001  -3.040218e-001 
4070000000  3.047542e-001  -3.025192e-001 
4075000000  2.744110e-001  -2.989734e-001 
4080000000  2.437956e-001  -2.921931e-001 
4085000000  2.129066e-001  -2.833567e-001 
4090000000  1.828481e-001  -2.708315e-001 
4095000000  1.529999e-001  -2.558932e-001 
4100000000  1.235472e-001  -2.374588e-001 
4105000000  9.625220e-002  -2.155303e-001 
4110000000  7.047378e-002  -1.913847e-001 
4115000000  4.624220e-002  -1.637488e-001 
4120000000  2.534710e-002  -1.328833e-001 
4125000000  7.339398e-003  -9.985490e-002 
4130000000  -6.575668e-003  -6.425598e-002 
4135000000  -1.764022e-002  -2.788389e-002 
4140000000  -2.430728e-002  1.120056e-002 
4145000000  -2.549016e-002  4.989780e-002 
4150000000  -2.335984e-002  8.798957e-002 
4155000000  -1.708940e-002  1.260873e-001 
4160000000  -6.424163e-003  1.629272e-001 
4165000000  7.988069e-003  1.978730e-001 
4170000000  2.591681e-002  2.305669e-001 
4175000000  4.687246e-002  2.610939e-001 
4180000000  7.107263e-002  2.885808e-001 
4185000000  9.712230e-002  3.117714e-001 
4190000000  1.241572e-001  3.327321e-001 
4195000000  1.536300e-001  3.507105e-001 
4200000000  1.830893e-001  3.655356e-001 
4205000000  2.135549e-001  3.770486e-001 
4210000000  2.442403e-001  3.851983e-001 
4215000000  2.746779e-001  3.907038e-001 
4220000000  3.044183e-001  3.933864e-001 
4225000000  3.338112e-001  3.934693e-001 
4230000000  3.618202e-001  3.909811e-001 
4235000000  3.887480e-001  3.870408e-001 
4240000000  4.146720e-001  3.814431e-001 
4245000000  4.399722e-001  3.741707e-001 
4250000000  4.640828e-001  3.655381e-001 
4255000000  4.877228e-001  3.544740e-001 
4260000000  5.088584e-001  3.422144e-001 
4265000000  5.281560e-001  3.286756e-001 
4270000000  5.457410e-001  3.154971e-001 
4275000000  5.633411e-001  3.020982e-001 
4280000000  5.800449e-001  2.883890e-001 
4285000000  5.955404e-001  2.741328e-001 
4290000000  6.105476e-001  2.595403e-001 
4295000000  6.248581e-001  2.429592e-001 
4300000000  6.368572e-001  2.269387e-001 
4305000000  6.483386e-001  2.112084e-001 
4310000000  6.586137e-001  1.949285e-001 
4315000000  6.683856e-001  1.787349e-001 
4320000000  6.771535e-001  1.633832e-001 
4325000000  6.855282e-001  1.474606e-001 
4330000000  6.932569e-001  1.315747e-001 
4335000000  7.003791e-001  1.152546e-001 
4340000000  7.061898e-001  9.907802e-002 
4345000000  7.113652e-001  8.340981e-002 
4350000000  7.159480e-001  6.807858e-002 
4355000000  7.201791e-001  5.226800e-002 
4360000000  7.233733e-001  3.698819e-002 
4365000000  7.266505e-001  2.236935e-002 
4370000000  7.297444e-001  7.821091e-003 
4375000000  7.322014e-001  -7.012221e-003 
4380000000  7.347792e-001  -2.147244e-002 
4385000000  7.362290e-001  -3.660813e-002 
4390000000  7.367872e-001  -5.178275e-002 
4395000000  7.370337e-001  -6.678980e-002 
4400000000  7.365924e-001  -8.084838e-002 
4405000000  7.367805e-001  -9.500618e-002 
4410000000  7.357683e-001  -1.094803e-001 
4415000000  7.344681e-001  -1.238200e-001 
4420000000  7.328937e-001  -1.384907e-001 
4425000000  7.312608e-001  -1.528374e-001 
4430000000  7.292327e-001  -1.671436e-001 
4435000000  7.262564e-001  -1.814140e-001 
4440000000  7.237293e-001  -1.960430e-001 
4445000000  7.200793e-001  -2.102572e-001 
4450000000  7.165740e-001  -2.256918e-001 
4455000000  7.120126e-001  -2.406220e-001 
4460000000  7.071738e-001  -2.546765e-001 
4465000000  7.017201e-001  -2.699846e-001 
4470000000  6.963874e-001  -2.847992e-001 
4475000000  6.904417e-001  -2.995337e-001 
4480000000  6.842597e-001  -3.137725e-001 
4485000000  6.777894e-001  -3.274800e-001 
4490000000  6.716368e-001  -3.416527e-001 
4495000000  6.645685e-001  -3.563793e-001 
4500000000  6.577371e-001  -3.691930e-001 
4505000000  6.505060e-001  -3.828430e-001 
4510000000  6.434802e-001  -3.967770e-001 
4515000000  6.353692e-001  -4.100145e-001 
4520000000  6.280659e-001  -4.227914e-001 
4525000000  6.195722e-001  -4.369325e-001 
4530000000  6.110787e-001  -4.499683e-001 
4535000000  6.029519e-001  -4.612195e-001 
4540000000  5.935961e-001  -4.735808e-001 
4545000000  5.848757e-001  -4.848334e-001 
4550000000  5.764453e-001  -4.955733e-001 
4555000000  5.680698e-001  -5.061871e-001 
4560000000  5.601017e-001  -5.165647e-001 
4565000000  5.512145e-001  -5.270615e-001 
4570000000  5.419179e-001  -5.376148e-001 
4575000000  5.328647e-001  -5.472592e-001 
4580000000  5.236022e-001  -5.564605e-001 
4585000000  5.142012e-001  -5.650983e-001 
4590000000  5.053636e-001  -5.732439e-001 
4595000000  4.968034e-001  -5.815412e-001 
4600000000  4.875027e-001  -5.897741e-001 
4605000000  4.776781e-001  -5.973236e-001 
4610000000  4.670208e-001  -6.049586e-001 
4615000000  4.573856e-001  -6.118010e-001 
4620000000  4.471618e-001  -6.177889e-001 
4625000000  4.369808e-001  -6.247398e-001 
4630000000  4.273052e-001  -6.305307e-001 
4635000000  4.168690e-001  -6.368356e-001 
4640000000  4.059502e-001  -6.434470e-001 
4645000000  3.955196e-001  -6.487029e-001 
4650000000  3.844846e-001  -6.546769e-001 
4655000000  3.722259e-001  -6.613988e-001 
4660000000  3.608142e-001  -6.667853e-001 
4665000000  3.487071e-001  -6.718754e-001 
4670000000  3.357951e-001  -6.775700e-001 
4675000000  3.235798e-001  -6.826134e-001 
4680000000  3.099282e-001  -6.888234e-001 
4685000000  2.973053e-001  -6.935355e-001 
4690000000  2.836822e-001  -6.988220e-001 
4695000000  2.692583e-001  -7.043524e-001 
4700000000  2.547176e-001  -7.093999e-001 
4705000000  2.394228e-001  -7.139696e-001 
4710000000  2.245640e-001  -7.186131e-001 
4715000000  2.084908e-001  -7.239178e-001 
4720000000  1.923441e-001  -7.275128e-001 
4725000000  1.760800e-001  -7.313634e-001 
4730000000  1.594353e-001  -7.349586e-001 
4735000000  1.425853e-001  -7.382009e-001 
4740000000  1.252004e-001  -7.416239e-001 
4745000000  1.082600e-001  -7.439467e-001 
4750000000  9.086825e-002  -7.467149e-001 
4755000000  7.256033e-002  -7.491615e-001 
4760000000  5.490930e-002  -7.504845e-001 
4765000000  3.751574e-002  -7.513712e-001 
4770000000  1.930309e-002  -7.526146e-001 
4775000000  1.209784e-003  -7.529448e-001 
4780000000  -1.709731e-002  -7.531996e-001 
4785000000  -3.632168e-002  -7.529808e-001 
4790000000  -5.478981e-002  -7.514683e-001 
4795000000  -7.365603e-002  -7.495246e-001 
4800000000  -9.194507e-002  -7.469304e-001 
4805000000  -1.096862e-001  -7.440580e-001 
4810000000  -1.275477e-001  -7.407289e-001 
4815000000  -1.464326e-001  -7.371578e-001 
4820000000  -1.644194e-001  -7.329105e-001 
4825000000  -1.820035e-001  -7.286462e-001 
4830000000  -2.004052e-001  -7.236686e-001 
4835000000  -2.185583e-001  -7.178088e-001 
4840000000  -2.366726e-001  -7.116602e-001 
4845000000  -2.545814e-001  -7.045467e-001 
4850000000  -2.724899e-001  -6.970264e-001 
4855000000  -2.910261e-001  -6.887248e-001 
4860000000  -3.083944e-001  -6.797864e-001 
4865000000  -3.261401e-001  -6.703677e-001 
4870000000  -3.435327e-001  -6.600328e-001 
4875000000  -3.607560e-001  -6.491970e-001 
4880000000  -3.769217e-001  -6.385567e-001 
4885000000  -3.941830e-001  -6.268198e-001 
4890000000  -4.103062e-001  -6.146400e-001 
4895000000  -4.259621e-001  -6.016253e-001 
4900000000  -4.420552e-001  -5.879755e-001 
4905000000  -4.574113e-001  -5.740728e-001 
4910000000  -4.729733e-001  -5.598031e-001 
4915000000  -4.883536e-001  -5.444689e-001 
4920000000  -5.032200e-001  -5.287729e-001 
4925000000  -5.175422e-001  -5.123978e-001 
4930000000  -5.311289e-001  -4.950849e-001 
4935000000  -5.447751e-001  -4.768666e-001 
4940000000  -5.580027e-001  -4.581017e-001 
4945000000  -5.699701e-001  -4.393666e-001 
4950000000  -5.817066e-001  -4.196585e-001 
4955000000  -5.930131e-001  -3.993338e-001 
4960000000  -6.037088e-001  -3.780632e-001 
4965000000  -6.129975e-001  -3.567148e-001 
4970000000  -6.229035e-001  -3.338367e-001 
4975000000  -6.313853e-001  -3.108324e-001 
4980000000  -6.388389e-001  -2.870037e-001 
4985000000  -6.457032e-001  -2.619032e-001 
4990000000  -6.513932e-001  -2.370354e-001 
4995000000  -6.559429e-001  -2.105837e-001 
5000000000  -6.597451e-001  -1.835491e-001 
5005000000  -6.620797e-001  -1.562357e-001 
5010000000  -6.630195e-001  -1.281160e-001 
5015000000  -6.627398e-001  -9.951756e-002 
5020000000  -6.609001e-001  -7.082697e-002 
5025000000  -6.580091e-001  -4.093090e-002 
5030000000  -6.535960e-001  -1.132366e-002 
5035000000  -6.475857e-001  1.878262e-002 
5040000000  -6.399466e-001  4.904206e-002 
5045000000  -6.309969e-001  7.933949e-002 
5050000000  -6.200729e-001  1.096304e-001 
5055000000  -6.072126e-001  1.401655e-001 
5060000000  -5.919871e-001  1.702879e-001 
5065000000  -5.754374e-001  1.987226e-001 
5070000000  -5.565850e-001  2.274387e-001 
5075000000  -5.362640e-001  2.544291e-001 
5080000000  -5.141825e-001  2.810395e-001 
5085000000  -4.904879e-001  3.056553e-001 
5090000000  -4.654129e-001  3.289985e-001 
5095000000  -4.390849e-001  3.509083e-001 
5100000000  -4.111508e-001  3.713302e-001 
5105000000  -3.819255e-001  3.899104e-001 
5110000000  -3.515283e-001  4.065465e-001 
5115000000  -3.201659e-001  4.208897e-001 
5120000000  -2.880822e-001  4.330675e-001 
5125000000  -2.546331e-001  4.432698e-001 
5130000000  -2.208525e-001  4.506623e-001 
5135000000  -1.866671e-001  4.551989e-001 
5140000000  -1.526780e-001  4.573581e-001 
5145000000  -1.187081e-001  4.570478e-001 
5150000000  -8.487911e-002  4.536373e-001 
5155000000  -5.185561e-002  4.480504e-001 
5160000000  -1.946707e-002  4.400493e-001 
5165000000  1.197186e-002  4.296713e-001 
5170000000  4.318640e-002  4.169132e-001 
5175000000  7.293762e-002  4.021122e-001 
5180000000  1.018189e-001  3.847984e-001 
5185000000  1.290555e-001  3.648112e-001 
5190000000  1.542446e-001  3.430390e-001 
5195000000  1.777802e-001  3.189800e-001 
5200000000  1.984865e-001  2.934655e-001 
5205000000  2.166555e-001  2.670687e-001 
5210000000  2.332961e-001  2.399521e-001 
5215000000  2.478939e-001  2.112876e-001 
5220000000  2.592171e-001  1.816459e-001 
5225000000  2.679240e-001  1.521738e-001 
5230000000  2.743529e-001  1.229730e-001 
5235000000  2.788627e-001  9.375980e-002 
5240000000  2.810003e-001  6.478909e-002 
5245000000  2.808768e-001  3.574173e-002 
5250000000  2.782664e-001  7.683943e-003 
5255000000  2.735904e-001  -1.949731e-002 
5260000000  2.667312e-001  -4.557442e-002 
5265000000  2.581490e-001  -7.008471e-002 
5270000000  2.477837e-001  -9.367622e-002 
5275000000  2.362590e-001  -1.154353e-001 
5280000000  2.228836e-001  -1.365747e-001 
5285000000  2.075505e-001  -1.558430e-001 
5290000000  1.905692e-001  -1.724705e-001 
5295000000  1.732108e-001  -1.874643e-001 
5300000000  1.548505e-001  -2.005780e-001 
5305000000  1.359571e-001  -2.118223e-001 
5310000000  1.159700e-001  -2.210272e-001 
5315000000  9.586640e-002  -2.287330e-001 
5320000000  7.489041e-002  -2.345185e-001 
5325000000  5.406867e-002  -2.382529e-001 
5330000000  3.255963e-002  -2.404920e-001 
5335000000  1.105092e-002  -2.403895e-001 
5340000000  -1.006362e-002  -2.384038e-001 
5345000000  -3.059903e-002  -2.348339e-001 
5350000000  -5.121923e-002  -2.300906e-001 
5355000000  -7.188442e-002  -2.229169e-001 
5360000000  -9.125563e-002  -2.136933e-001 
5365000000  -1.092446e-001  -2.029411e-001 
5370000000  -1.259287e-001  -1.918278e-001 
5375000000  -1.428088e-001  -1.796343e-001 
5380000000  -1.589217e-001  -1.650521e-001 
5385000000  -1.727389e-001  -1.486648e-001 
5390000000  -1.848123e-001  -1.323456e-001 
5395000000  -1.959867e-001  -1.143922e-001 
5400000000  -2.047839e-001  -9.607508e-002 
5405000000  -2.123925e-001  -7.771988e-002 
5410000000  -2.191018e-001  -5.886858e-002 
5415000000  -2.241958e-001  -3.877371e-002 
5420000000  -2.270710e-001  -1.837213e-002 
5425000000  -2.282423e-001  1.909621e-003 
5430000000  -2.274140e-001  2.227790e-002 
5435000000  -2.250013e-001  4.206784e-002 
5440000000  -2.211308e-001  6.169210e-002 
5445000000  -2.156002e-001  8.078766e-002 
5450000000  -2.087237e-001  9.961782e-002 
5455000000  -2.001490e-001  1.188188e-001 
5460000000  -1.898066e-001  1.368013e-001 
5465000000  -1.778796e-001  1.541602e-001 
5470000000  -1.646529e-001  1.705494e-001 
5475000000  -1.504789e-001  1.862019e-001 
5480000000  -1.344905e-001  2.019047e-001 
5485000000  -1.167080e-001  2.158387e-001 
5490000000  -9.838646e-002  2.287741e-001 
5495000000  -7.836924e-002  2.404596e-001 
5500000000  -5.774570e-002  2.499380e-001 
5505000000  -3.702656e-002  2.587543e-001 
5510000000  -1.520807e-002  2.664837e-001 
5515000000  7.484028e-003  2.729021e-001 
5520000000  3.099722e-002  2.769234e-001 
5525000000  5.424879e-002  2.793693e-001 
5530000000  7.666270e-002  2.801984e-001 
5535000000  9.920215e-002  2.799966e-001 
5540000000  1.220470e-001  2.783304e-001 
5545000000  1.441682e-001  2.747720e-001 
5550000000  1.653757e-001  2.701165e-001 
5555000000  1.862847e-001  2.645883e-001 
5560000000  2.065963e-001  2.580706e-001 
5565000000  2.267149e-001  2.504508e-001 
5570000000  2.463824e-001  2.410270e-001 
5575000000  2.644752e-001  2.302684e-001 
5580000000  2.817586e-001  2.186845e-001 
5585000000  2.985129e-001  2.066001e-001 
5590000000  3.142526e-001  1.935535e-001 
5595000000  3.289132e-001  1.792473e-001 
5600000000  3.425681e-001  1.642983e-001 
5605000000  3.550370e-001  1.487407e-001 
5610000000  3.667617e-001  1.323655e-001 
5615000000  3.768945e-001  1.147975e-001 
5620000000  3.859856e-001  9.718733e-002 
5625000000  3.936149e-001  7.861959e-002 
5630000000  4.001987e-001  6.044707e-002 
5635000000  4.055389e-001  4.193051e-002 
5640000000  4.104142e-001  2.371106e-002 
5645000000  4.142703e-001  4.937670e-003 
5650000000  4.182160e-001  -1.331044e-002 
5655000000  4.215948e-001  -3.325967e-002 
5660000000  4.229037e-001  -5.348311e-002 
5665000000  4.237046e-001  -7.298705e-002 
5670000000  4.237326e-001  -9.274431e-002 
5675000000  4.228677e-001  -1.125551e-001 
5680000000  4.209622e-001  -1.325631e-001 
5685000000  4.172193e-001  -1.518710e-001 
5690000000  4.131327e-001  -1.695773e-001 
5695000000  4.095784e-001  -1.870330e-001 
5700000000  4.054771e-001  -2.046873e-001 
5705000000  4.008424e-001  -2.222728e-001 
5710000000  3.950013e-001  -2.395437e-001 
5715000000  3.888377e-001  -2.561960e-001 
5720000000  3.822194e-001  -2.721666e-001 
5725000000  3.749551e-001  -2.875427e-001 
5730000000  3.682221e-001  -3.022136e-001 
5735000000  3.609866e-001  -3.170286e-001 
5740000000  3.530647e-001  -3.313988e-001 
5745000000  3.449271e-001  -3.456249e-001 
5750000000  3.359663e-001  -3.594112e-001 
5755000000  3.262349e-001  -3.723632e-001 
5760000000  3.164825e-001  -3.842557e-001 
5765000000  3.067423e-001  -3.956422e-001 
5770000000  2.971076e-001  -4.067564e-001 
5775000000  2.869477e-001  -4.173237e-001 
5780000000  2.759956e-001  -4.277281e-001 
5785000000  2.650107e-001  -4.374671e-001 
5790000000  2.536902e-001  -4.469645e-001 
5795000000  2.422238e-001  -4.553154e-001 
5800000000  2.309695e-001  -4.636349e-001 
5805000000  2.193919e-001  -4.723386e-001 
5810000000  2.063520e-001  -4.809373e-001 
5815000000  1.933026e-001  -4.877833e-001 
5820000000  1.800313e-001  -4.948843e-001 
5825000000  1.667867e-001  -5.011475e-001 
5830000000  1.539026e-001  -5.076488e-001 
5835000000  1.396150e-001  -5.141678e-001 
5840000000  1.250246e-001  -5.197881e-001 
5845000000  1.108363e-001  -5.244298e-001 
5850000000  9.624416e-002  -5.292829e-001 
5855000000  8.161721e-002  -5.340722e-001 
5860000000  6.633123e-002  -5.382178e-001 
5865000000  5.154943e-002  -5.418700e-001 
5870000000  3.647659e-002  -5.457762e-001 
5875000000  2.077010e-002  -5.495285e-001 
5880000000  4.636012e-003  -5.524957e-001 
5885000000  -1.168661e-002  -5.548859e-001 
5890000000  -2.809550e-002  -5.566787e-001 
5895000000  -4.488046e-002  -5.578209e-001 
5900000000  -6.090968e-002  -5.583660e-001 
5905000000  -7.697729e-002  -5.587860e-001 
5910000000  -9.322836e-002  -5.588854e-001 
5915000000  -1.090095e-001  -5.586792e-001 
5920000000  -1.256103e-001  -5.580288e-001 
5925000000  -1.423264e-001  -5.562064e-001 
5930000000  -1.577993e-001  -5.536843e-001 
5935000000  -1.736980e-001  -5.505987e-001 
5940000000  -1.888040e-001  -5.473366e-001 
5945000000  -2.036150e-001  -5.435402e-001 
5950000000  -2.179015e-001  -5.394307e-001 
5955000000  -2.317752e-001  -5.353672e-001 
5960000000  -2.456874e-001  -5.314409e-001 
5965000000  -2.604543e-001  -5.271652e-001 
5970000000  -2.748811e-001  -5.213242e-001 
5975000000  -2.885985e-001  -5.150716e-001 
5980000000  -3.025114e-001  -5.087941e-001 
5985000000  -3.165345e-001  -5.017731e-001 
5990000000  -3.302181e-001  -4.938462e-001 
5995000000  -3.429593e-001  -4.852322e-001 
6000000000  -3.554294e-001  -4.767235e-001 
