!Agilent Technologies,E8364B,MY43040633,A.07.50.37
!Agilent E8364B: A.07.50.37
!Date: Thursday, December 18, 2025 17:13:26
!Correction: S11(Full 2 Port(1,2)) 
!S1P File: Measurement: S11:
# Hz S  RI   R 50
10000000  8.780260e-001  -4.785557e-001 
34950000  6.156644e-001  -7.959541e-001 
59900000  -4.607257e-001  6.568943e-001 
84850000  7.621578e-001  -4.057652e-001 
109800000  -7.790889e-001  1.487763e-001 
134750000  8.657849e-001  -3.165513e-002 
159700000  -7.112480e-001  -7.146693e-002 
184650000  6.663281e-001  3.583407e-001 
209600000  -6.419906e-001  -4.309762e-001 
234550000  5.094647e-001  5.826321e-001 
259500000  -4.590643e-001  -7.717972e-001 
284450000  -8.263733e-001  3.283839e-001 
309400000  8.788846e-001  -9.581624e-002 
334350000  -8.121204e-001  -1.207739e-001 
359300000  7.982092e-001  3.050804e-001 
384250000  -5.475537e-001  -5.849098e-001 
409200000  -7.130173e-001  1.339965e-001 
434150000  7.216167e-001  1.803825e-001 
459100000  -6.932707e-001  -2.975256e-001 
484050000  6.958600e-001  3.552939e-001 
509000000  -4.522035e-001  -5.694628e-001 
533950000  2.130336e-001  6.603029e-001 
558900000  5.975532e-001  -3.326783e-001 
583850000  -5.886002e-001  3.892800e-001 
608800000  6.583393e-001  -1.332917e-001 
633750000  -4.972762e-001  -1.548652e-003 
658700000  2.899584e-001  6.731991e-002 
683650000  4.737908e-002  -2.504534e-001 
708600000  -7.944334e-002  2.401652e-001 
733550000  2.349887e-001  -2.173802e-002 
758500000  -4.658784e-002  -1.073468e-001 
783450000  -8.192870e-003  -8.854898e-002 
808400000  -1.909735e-001  -1.525171e-001 
833350000  1.039262e-002  2.027480e-001 
858300000  4.234516e-002  6.407635e-002 
883250000  5.485039e-002  -1.313155e-001 
908200000  -1.435887e-001  -7.135352e-002 
933150000  -6.046821e-002  8.813901e-002 
958100000  -1.121151e-001  3.078200e-002 
983050000  1.103987e-001  1.714447e-001 
1008000000  1.890327e-001  -1.640814e-001 
1032950000  -1.611763e-001  -1.195472e-001 
1057900000  -6.260628e-002  1.286474e-001 
1082850000  -1.066626e-001  5.973038e-002 
1107800000  5.083689e-002  1.245826e-001 
1132750000  1.663515e-001  -1.203186e-002 
1157700000  -2.934820e-002  -2.502535e-001 
1182650000  -2.460154e-001  9.049134e-002 
1207600000  -1.376470e-001  1.011437e-001 
1232550000  -2.124031e-002  2.223123e-001 
1257500000  2.713412e-001  -7.463774e-002 
1282450000  -1.545084e-001  -2.360600e-001 
1307400000  -1.215481e-001  5.843433e-002 
1332350000  -7.572342e-002  1.540605e-001 
1357300000  -1.044843e-001  2.585288e-001 
1382250000  3.451419e-001  4.111812e-002 
1407200000  -3.010284e-002  -3.022731e-001 
1432150000  -1.811809e-001  1.701274e-002 
1457100000  -2.038471e-002  1.953247e-001 
1482050000  -7.139406e-002  2.285003e-001 
1507000000  1.908570e-001  9.171715e-002 
1531950000  1.562156e-001  -1.873301e-001 
1556900000  -2.424261e-001  -1.997092e-001 
1581850000  -1.731283e-001  2.936638e-001 
1606800000  -1.213757e-001  2.636679e-001 
1631750000  2.441542e-001  9.735476e-002 
1656700000  1.384401e-001  -1.901303e-001 
1681650000  -1.778314e-001  -2.351628e-001 
1706600000  -2.083236e-001  2.258854e-001 
1731550000  1.588410e-001  1.585696e-001 
1756500000  9.725354e-002  2.818589e-001 
1781450000  3.414635e-001  -1.767586e-001 
1806400000  -2.276528e-001  -3.162271e-001 
1831350000  -2.341727e-001  1.989180e-001 
1856300000  1.289297e-001  1.832492e-001 
1881250000  7.158068e-002  2.487380e-001 
1906200000  3.071242e-001  -2.463968e-003 
1931150000  3.127201e-002  -3.366931e-001 
1956100000  -3.431738e-001  -3.389845e-002 
1981050000  1.961710e-002  3.891556e-001 
2006000000  9.318499e-002  3.550482e-001 
2030950000  2.739812e-001  -1.014248e-001 
2055900000  -3.766743e-002  -2.404173e-001 
2080850000  -2.483532e-001  -8.868761e-002 
2105800000  -1.143688e-001  2.850080e-001 
2130750000  -1.439942e-001  3.505920e-001 
2155700000  3.632852e-001  1.527430e-001 
2180650000  9.998234e-002  -3.622077e-001 
2205600000  -3.372778e-001  -9.316160e-004 
2230550000  -4.079116e-002  2.543813e-001 
2255500000  1.722439e-001  1.314934e-001 
2280450000  2.139156e-001  2.210968e-001 
2305400000  3.019392e-001  -2.617536e-001 
2330350000  -2.555430e-001  -2.623271e-001 
2355300000  -1.903191e-001  2.562599e-001 
2380250000  2.422616e-001  1.662612e-001 
2405200000  1.889287e-001  2.070337e-001 
2430150000  2.040924e-001  -1.651877e-001 
2455100000  -2.163336e-001  -2.015442e-001 
2480050000  -2.678902e-001  1.883431e-001 
2505000000  1.302962e-001  2.867388e-001 
2529950000  1.394065e-001  3.373158e-001 
2554900000  3.606536e-001  -1.151961e-001 
2579850000  -1.299376e-001  -2.553390e-001 
2604800000  -2.275943e-001  1.634822e-001 
2629750000  1.068235e-001  2.891931e-001 
2654700000  2.845016e-001  -4.831173e-002 
2679650000  2.864668e-001  -4.115474e-002 
2704600000  4.638627e-003  -3.423645e-001 
2729550000  -3.626294e-001  -1.029079e-001 
2754500000  -3.690278e-002  3.434730e-001 
2779450000  3.537436e-001  -6.412467e-002 
2804400000  3.079455e-001  -1.834073e-002 
2829350000  -9.209436e-003  -1.969768e-001 
2854300000  -2.201974e-001  -4.990168e-002 
2879250000  -1.396202e-001  3.225233e-001 
2904200000  3.058612e-001  2.010970e-001 
2929150000  3.275562e-001  2.030530e-001 
2954100000  2.294125e-001  -3.553226e-001 
2979050000  -2.965353e-001  -1.542699e-001 
3004000000  -4.079887e-002  2.544876e-001 
3028950000  1.953017e-001  7.064790e-002 
3053900000  1.942860e-001  -9.506904e-002 
3078850000  3.007528e-001  -8.519004e-002 
3103800000  -2.115454e-001  -3.866985e-001 
3128750000  -4.102381e-001  2.500024e-001 
3153700000  2.747470e-001  2.803794e-001 
3178650000  1.551272e-001  -2.712946e-001 
3203600000  1.475590e-001  -1.140424e-001 
3228550000  3.249731e-002  -1.846357e-001 
3253500000  -2.751523e-001  -7.280187e-002 
3278450000  -1.818417e-002  3.765528e-001 
3303400000  4.407402e-001  -7.575234e-002 
3328350000  4.312173e-001  -1.352477e-001 
3353300000  -1.807571e-001  -2.752970e-001 
3378250000  -1.297013e-001  1.646876e-001 
3403200000  8.109888e-004  1.339201e-001 
3428150000  2.495551e-001  1.708541e-001 
3453100000  1.968029e-001  -3.429950e-001 
3478050000  1.354949e-001  -4.440181e-001 
3503000000  -4.731665e-001  -7.491650e-002 
3527950000  -1.109853e-002  3.876063e-001 
3552900000  2.004672e-001  -6.057188e-002 
3577850000  4.831837e-002  -1.215797e-001 
3602800000  2.471239e-001  -1.192867e-001 
3627750000  -2.330675e-001  -3.144768e-001 
3652700000  -2.944616e-001  3.584267e-001 
3677650000  3.752749e-001  2.988187e-001 
3702600000  1.635172e-001  -3.301277e-001 
3727550000  1.277275e-001  -2.450579e-001 
3752500000  -7.610090e-002  -1.380935e-001 
3777450000  -1.978818e-001  1.923243e-002 
3802400000  1.191856e-001  3.082397e-001 
3827350000  4.015313e-001  -1.888743e-001 
3852300000  3.842224e-001  -2.084139e-001 
3877250000  -2.169015e-001  -3.385489e-001 
3902200000  -3.095385e-001  1.327363e-001 
3927150000  4.869241e-002  2.221532e-001 
3952100000  2.108101e-001  -1.565777e-002 
3977050000  9.950530e-003  -3.176017e-001 
4002000000  2.050019e-002  -3.496136e-001 
4026950000  -3.204848e-001  1.047430e-001 
4051900000  1.502622e-001  3.649783e-001 
4076850000  3.621150e-001  -4.452123e-002 
4101800000  5.261356e-002  -3.169474e-001 
4126750000  9.929115e-002  -3.577430e-001 
4151700000  -3.932075e-001  -7.579140e-002 
4176650000  -2.456238e-002  3.311940e-001 
4201600000  3.015223e-001  -2.135742e-002 
4226550000  6.606909e-002  -3.052310e-001 
4251500000  1.942600e-001  -2.544923e-001 
4276450000  -3.630379e-001  -2.281657e-001 
4301400000  -2.535866e-001  4.335201e-001 
4326350000  3.443353e-001  1.556523e-001 
4351300000  5.029283e-002  -3.448627e-001 
4376250000  -2.776242e-001  -3.970739e-002 
4401200000  -1.542067e-001  -8.763039e-002 
4426150000  -1.751303e-001  2.338805e-001 
4451100000  3.277670e-001  4.077534e-001 
4476050000  4.924325e-001  -2.748300e-001 
4501000000  -2.842389e-001  -3.804109e-001 
4525950000  -3.884748e-001  -2.946547e-001 
4550900000  -2.264645e-001  2.091897e-001 
4575850000  -2.374676e-002  6.694101e-002 
4600800000  1.160624e-001  -2.795297e-002 
4625750000  -1.520047e-001  -4.425028e-001 
4650700000  -1.089450e-001  -4.856743e-001 
4675650000  -4.841366e-001  3.184840e-001 
4700600000  2.888315e-001  4.784496e-001 
4725550000  3.413655e-001  -1.658465e-001 
4750500000  -1.085217e-001  -1.173132e-001 
4775450000  -1.310995e-001  -2.274310e-002 
4800400000  -2.549390e-001  -1.499527e-001 
4825350000  -6.202289e-002  3.906146e-001 
4850300000  6.099659e-001  -8.367810e-002 
4875250000  -9.684207e-002  -6.370211e-001 
4900200000  -5.073190e-001  1.472682e-001 
4925150000  -3.560947e-001  2.362222e-001 
4950100000  -1.368205e-002  8.082119e-002 
4975050000  -7.216553e-002  2.166595e-001 
5000000000  2.165168e-001  -2.252603e-001 
