!Agilent Technologies,E8364B,MY43040633,A.07.50.37
!Agilent E8364B: A.07.50.37
!Date: Tuesday, December 16, 2025 17:04:58
!Correction: S11(Full 1 Port(1)) 
!S1P File: Measurement: S11:
# Hz S  RI   R 50
1000000000  -1.413618e-001  9.771357e-001 
1005000000  -1.317376e-001  9.776874e-001 
1010000000  -1.220739e-001  9.791331e-001 
1015000000  -1.125868e-001  9.795085e-001 
1020000000  -1.028273e-001  9.804364e-001 
1025000000  -9.309816e-002  9.808905e-001 
1030000000  -8.356487e-002  9.810160e-001 
1035000000  -7.321530e-002  9.815017e-001 
1040000000  -6.415930e-002  9.815453e-001 
1045000000  -5.469910e-002  9.810672e-001 
1050000000  -4.454412e-002  9.818289e-001 
1055000000  -3.479810e-002  9.812424e-001 
1060000000  -2.462801e-002  9.817029e-001 
1065000000  -1.394622e-002  9.812254e-001 
1070000000  -4.141583e-003  9.810095e-001 
1075000000  5.733079e-003  9.806100e-001 
1080000000  1.728350e-002  9.795665e-001 
1085000000  2.737520e-002  9.788427e-001 
1090000000  3.782934e-002  9.775056e-001 
1095000000  4.838080e-002  9.757849e-001 
1100000000  5.870978e-002  9.735804e-001 
1105000000  7.087562e-002  9.715955e-001 
1110000000  8.050156e-002  9.689918e-001 
1115000000  9.152596e-002  9.657510e-001 
1120000000  1.027374e-001  9.621618e-001 
1125000000  1.135189e-001  9.581138e-001 
1130000000  1.244078e-001  9.525075e-001 
1135000000  1.346809e-001  9.472706e-001 
1140000000  1.440281e-001  9.406743e-001 
1145000000  1.527250e-001  9.325738e-001 
1150000000  1.602912e-001  9.240124e-001 
1155000000  1.667986e-001  9.146793e-001 
1160000000  1.691551e-001  9.053659e-001 
1165000000  1.697527e-001  8.961705e-001 
1170000000  1.680243e-001  8.897375e-001 
1175000000  1.646098e-001  8.868001e-001 
1180000000  1.606449e-001  8.880404e-001 
1185000000  1.589894e-001  8.924698e-001 
1190000000  1.599196e-001  8.981572e-001 
1195000000  1.636881e-001  9.054328e-001 
1200000000  1.705251e-001  9.120079e-001 
1205000000  1.791055e-001  9.174140e-001 
1210000000  1.897994e-001  9.214795e-001 
1215000000  2.007517e-001  9.243512e-001 
1220000000  2.122782e-001  9.258570e-001 
1225000000  2.226822e-001  9.264389e-001 
1230000000  2.336022e-001  9.263234e-001 
1235000000  2.450332e-001  9.260035e-001 
1240000000  2.566677e-001  9.244720e-001 
1245000000  2.668415e-001  9.225234e-001 
1250000000  2.769405e-001  9.202603e-001 
1255000000  2.872786e-001  9.178607e-001 
1260000000  2.975010e-001  9.152350e-001 
1265000000  3.075815e-001  9.129027e-001 
1270000000  3.174143e-001  9.096455e-001 
1275000000  3.280838e-001  9.060331e-001 
1280000000  3.377002e-001  9.025750e-001 
1285000000  3.467951e-001  8.993194e-001 
1290000000  3.563943e-001  8.958654e-001 
1295000000  3.658822e-001  8.918094e-001 
1300000000  3.757304e-001  8.879858e-001 
1305000000  3.850751e-001  8.838557e-001 
1310000000  3.941597e-001  8.794330e-001 
1315000000  4.036563e-001  8.750130e-001 
1320000000  4.130705e-001  8.707761e-001 
1325000000  4.218308e-001  8.658064e-001 
1330000000  4.311189e-001  8.611580e-001 
1335000000  4.397237e-001  8.559688e-001 
1340000000  4.488772e-001  8.510341e-001 
1345000000  4.575063e-001  8.461735e-001 
1350000000  4.665361e-001  8.405155e-001 
1355000000  4.751801e-001  8.350728e-001 
1360000000  4.844773e-001  8.293864e-001 
1365000000  4.925955e-001  8.234735e-001 
1370000000  5.004180e-001  8.177686e-001 
1375000000  5.090028e-001  8.123800e-001 
1380000000  5.173390e-001  8.064645e-001 
1385000000  5.254669e-001  8.002576e-001 
1390000000  5.331212e-001  7.937170e-001 
1395000000  5.417314e-001  7.871088e-001 
1400000000  5.500767e-001  7.816566e-001 
1405000000  5.578979e-001  7.748961e-001 
1410000000  5.654130e-001  7.690675e-001 
1415000000  5.747761e-001  7.624172e-001 
1420000000  5.818560e-001  7.554107e-001 
1425000000  5.899742e-001  7.485780e-001 
1430000000  5.991251e-001  7.421547e-001 
1435000000  6.071950e-001  7.346517e-001 
1440000000  6.153105e-001  7.272915e-001 
1445000000  6.228558e-001  7.188541e-001 
1450000000  6.303129e-001  7.119702e-001 
1455000000  6.381550e-001  7.034052e-001 
1460000000  6.455657e-001  6.954606e-001 
1465000000  6.532075e-001  6.877488e-001 
1470000000  6.612256e-001  6.796638e-001 
1475000000  6.678684e-001  6.711299e-001 
1480000000  6.763312e-001  6.628096e-001 
1485000000  6.835845e-001  6.536224e-001 
1490000000  6.909311e-001  6.444910e-001 
1495000000  6.981432e-001  6.362325e-001 
1500000000  7.054240e-001  6.266337e-001 
1505000000  7.125086e-001  6.162851e-001 
1510000000  7.189010e-001  6.072150e-001 
1515000000  7.259407e-001  5.970833e-001 
1520000000  7.314922e-001  5.869519e-001 
1525000000  7.374227e-001  5.769388e-001 
1530000000  7.429775e-001  5.677477e-001 
1535000000  7.489567e-001  5.580979e-001 
1540000000  7.552649e-001  5.487307e-001 
1545000000  7.614050e-001  5.386218e-001 
1550000000  7.675297e-001  5.283375e-001 
1555000000  7.736166e-001  5.179737e-001 
1560000000  7.797893e-001  5.071399e-001 
1565000000  7.855874e-001  4.960118e-001 
1570000000  7.916498e-001  4.842544e-001 
1575000000  7.963963e-001  4.729887e-001 
1580000000  8.014550e-001  4.607631e-001 
1585000000  8.062046e-001  4.494463e-001 
1590000000  8.104959e-001  4.375842e-001 
1595000000  8.153667e-001  4.257714e-001 
1600000000  8.197337e-001  4.134783e-001 
1605000000  8.237675e-001  4.012755e-001 
1610000000  8.278764e-001  3.882463e-001 
1615000000  8.316254e-001  3.753196e-001 
1620000000  8.354033e-001  3.619684e-001 
1625000000  8.388341e-001  3.485487e-001 
1630000000  8.414929e-001  3.343051e-001 
1635000000  8.437860e-001  3.203970e-001 
1640000000  8.455458e-001  3.056140e-001 
1645000000  8.472412e-001  2.916427e-001 
1650000000  8.488602e-001  2.762359e-001 
1655000000  8.493157e-001  2.611420e-001 
1660000000  8.495819e-001  2.457260e-001 
1665000000  8.492768e-001  2.296285e-001 
1670000000  8.480013e-001  2.131974e-001 
1675000000  8.458070e-001  1.974822e-001 
1680000000  8.431562e-001  1.805353e-001 
1685000000  8.397238e-001  1.632735e-001 
1690000000  8.345939e-001  1.457570e-001 
1695000000  8.283272e-001  1.285720e-001 
1700000000  8.203489e-001  1.114790e-001 
1705000000  8.106466e-001  9.492049e-002 
1710000000  7.990522e-001  7.881206e-002 
1715000000  7.848262e-001  6.402463e-002 
1720000000  7.689880e-001  5.063261e-002 
1725000000  7.513072e-001  4.029968e-002 
1730000000  7.315461e-001  3.388014e-002 
1735000000  7.114603e-001  3.136971e-002 
1740000000  6.921441e-001  3.376609e-002 
1745000000  6.752486e-001  4.017738e-002 
1750000000  6.617894e-001  5.122804e-002 
1755000000  6.538035e-001  6.425159e-002 
1760000000  6.510906e-001  7.872428e-002 
1765000000  6.541322e-001  9.264766e-002 
1770000000  6.624708e-001  1.040040e-001 
1775000000  6.746304e-001  1.116763e-001 
1780000000  6.891180e-001  1.148272e-001 
1785000000  7.042357e-001  1.140745e-001 
1790000000  7.200896e-001  1.094071e-001 
1795000000  7.349968e-001  1.019232e-001 
1800000000  7.485627e-001  9.085167e-002 
1805000000  7.605414e-001  7.779338e-002 
1810000000  7.706861e-001  6.279270e-002 
1815000000  7.790275e-001  4.646129e-002 
1820000000  7.862825e-001  2.950013e-002 
1825000000  7.915439e-001  1.156962e-002 
1830000000  7.953954e-001  -6.466525e-003 
1835000000  7.978996e-001  -2.512757e-002 
1840000000  7.989938e-001  -4.399794e-002 
1845000000  7.987818e-001  -6.267003e-002 
1850000000  7.975101e-001  -8.119123e-002 
1855000000  7.957727e-001  -1.000797e-001 
1860000000  7.924261e-001  -1.186674e-001 
1865000000  7.887487e-001  -1.373800e-001 
1870000000  7.842681e-001  -1.552781e-001 
1875000000  7.788574e-001  -1.738229e-001 
1880000000  7.723629e-001  -1.920509e-001 
1885000000  7.652062e-001  -2.098282e-001 
1890000000  7.578805e-001  -2.277685e-001 
1895000000  7.494090e-001  -2.455895e-001 
1900000000  7.398514e-001  -2.639940e-001 
1905000000  7.292574e-001  -2.807260e-001 
1910000000  7.186173e-001  -2.972578e-001 
1915000000  7.075771e-001  -3.139056e-001 
1920000000  6.959161e-001  -3.303982e-001 
1925000000  6.834853e-001  -3.473113e-001 
1930000000  6.704924e-001  -3.634214e-001 
1935000000  6.558446e-001  -3.804669e-001 
1940000000  6.406314e-001  -3.967258e-001 
1945000000  6.249922e-001  -4.119903e-001 
1950000000  6.082670e-001  -4.271797e-001 
1955000000  5.911703e-001  -4.418940e-001 
1960000000  5.721938e-001  -4.567426e-001 
1965000000  5.524766e-001  -4.706002e-001 
1970000000  5.332282e-001  -4.827246e-001 
1975000000  5.127520e-001  -4.956139e-001 
1980000000  4.922319e-001  -5.069858e-001 
1985000000  4.708037e-001  -5.182363e-001 
1990000000  4.485461e-001  -5.287009e-001 
1995000000  4.256578e-001  -5.387775e-001 
2000000000  4.017203e-001  -5.475906e-001 
2005000000  3.778780e-001  -5.556192e-001 
2010000000  3.530435e-001  -5.637218e-001 
2015000000  3.269266e-001  -5.703002e-001 
2020000000  3.002537e-001  -5.752630e-001 
2025000000  2.737121e-001  -5.789562e-001 
2030000000  2.465595e-001  -5.818027e-001 
2035000000  2.195670e-001  -5.829384e-001 
2040000000  1.922154e-001  -5.836258e-001 
2045000000  1.645374e-001  -5.826169e-001 
2050000000  1.372996e-001  -5.807232e-001 
2055000000  1.101886e-001  -5.783789e-001 
2060000000  8.185278e-002  -5.752063e-001 
2065000000  5.303116e-002  -5.703373e-001 
2070000000  2.402842e-002  -5.639277e-001 
2075000000  -4.813586e-003  -5.560988e-001 
2080000000  -3.478950e-002  -5.468782e-001 
2085000000  -6.456307e-002  -5.344939e-001 
2090000000  -9.270952e-002  -5.203562e-001 
2095000000  -1.202740e-001  -5.051092e-001 
2100000000  -1.470846e-001  -4.881668e-001 
2105000000  -1.727665e-001  -4.700903e-001 
2110000000  -1.973422e-001  -4.511538e-001 
2115000000  -2.217677e-001  -4.316296e-001 
2120000000  -2.462320e-001  -4.107549e-001 
2125000000  -2.696607e-001  -3.879383e-001 
2130000000  -2.923723e-001  -3.637706e-001 
2135000000  -3.139035e-001  -3.380376e-001 
2140000000  -3.346579e-001  -3.106028e-001 
2145000000  -3.529724e-001  -2.813164e-001 
2150000000  -3.695025e-001  -2.516643e-001 
2155000000  -3.843558e-001  -2.215429e-001 
2160000000  -3.981646e-001  -1.905897e-001 
2165000000  -4.104017e-001  -1.582032e-001 
2170000000  -4.206762e-001  -1.253754e-001 
2175000000  -4.290381e-001  -9.216915e-002 
2180000000  -4.357307e-001  -5.839270e-002 
2185000000  -4.399330e-001  -2.470489e-002 
2190000000  -4.425371e-001  8.830595e-003 
2195000000  -4.437660e-001  4.247269e-002 
2200000000  -4.427345e-001  7.584561e-002 
2205000000  -4.403749e-001  1.087437e-001 
2210000000  -4.364995e-001  1.409563e-001 
2215000000  -4.318824e-001  1.734110e-001 
2220000000  -4.250742e-001  2.065325e-001 
2225000000  -4.154225e-001  2.387917e-001 
2230000000  -4.036525e-001  2.695815e-001 
2235000000  -3.908784e-001  2.987022e-001 
2240000000  -3.772029e-001  3.267512e-001 
2245000000  -3.625998e-001  3.540274e-001 
2250000000  -3.469051e-001  3.804833e-001 
2255000000  -3.302233e-001  4.058644e-001 
2260000000  -3.129389e-001  4.307915e-001 
2265000000  -2.938281e-001  4.548494e-001 
2270000000  -2.736451e-001  4.777906e-001 
2275000000  -2.526681e-001  4.991940e-001 
2280000000  -2.307599e-001  5.193207e-001 
2285000000  -2.085019e-001  5.382154e-001 
2290000000  -1.853590e-001  5.561239e-001 
2295000000  -1.616186e-001  5.721903e-001 
2300000000  -1.379631e-001  5.869086e-001 
2305000000  -1.144917e-001  6.007234e-001 
2310000000  -9.060692e-002  6.139357e-001 
2315000000  -6.609859e-002  6.261227e-001 
2320000000  -4.111416e-002  6.370856e-001 
2325000000  -1.586720e-002  6.469070e-001 
2330000000  9.444810e-003  6.550120e-001 
2335000000  3.460167e-002  6.624051e-001 
2340000000  5.992018e-002  6.684197e-001 
2345000000  8.514437e-002  6.730317e-001 
2350000000  1.098487e-001  6.770598e-001 
2355000000  1.341843e-001  6.800491e-001 
2360000000  1.584907e-001  6.824135e-001 
2365000000  1.827961e-001  6.835631e-001 
2370000000  2.062651e-001  6.835796e-001 
2375000000  2.298745e-001  6.829813e-001 
2380000000  2.532638e-001  6.815741e-001 
2385000000  2.755899e-001  6.793557e-001 
2390000000  2.978959e-001  6.768678e-001 
2395000000  3.198497e-001  6.733186e-001 
2400000000  3.416637e-001  6.689594e-001 
2405000000  3.630043e-001  6.638166e-001 
2410000000  3.836366e-001  6.579842e-001 
2415000000  4.035055e-001  6.518805e-001 
2420000000  4.231722e-001  6.451916e-001 
2425000000  4.424102e-001  6.385033e-001 
2430000000  4.618377e-001  6.308147e-001 
2435000000  4.800969e-001  6.222237e-001 
2440000000  4.981434e-001  6.136847e-001 
2445000000  5.155767e-001  6.045445e-001 
2450000000  5.324861e-001  5.952558e-001 
2455000000  5.489406e-001  5.860777e-001 
2460000000  5.655746e-001  5.765771e-001 
2465000000  5.817271e-001  5.663874e-001 
2470000000  5.973147e-001  5.561228e-001 
2475000000  6.126809e-001  5.450637e-001 
2480000000  6.275480e-001  5.335670e-001 
2485000000  6.421536e-001  5.217540e-001 
2490000000  6.560493e-001  5.099835e-001 
2495000000  6.691877e-001  4.984692e-001 
2500000000  6.822819e-001  4.863154e-001 
2505000000  6.949153e-001  4.738384e-001 
2510000000  7.073330e-001  4.616963e-001 
2515000000  7.193891e-001  4.491045e-001 
2520000000  7.315120e-001  4.364628e-001 
2525000000  7.428039e-001  4.236358e-001 
2530000000  7.538033e-001  4.104125e-001 
2535000000  7.643358e-001  3.973133e-001 
2540000000  7.743233e-001  3.833824e-001 
2545000000  7.840915e-001  3.695064e-001 
2550000000  7.933612e-001  3.555743e-001 
2555000000  8.023710e-001  3.418779e-001 
2560000000  8.106930e-001  3.282513e-001 
2565000000  8.188902e-001  3.140594e-001 
2570000000  8.263785e-001  2.998304e-001 
2575000000  8.336727e-001  2.855486e-001 
2580000000  8.405128e-001  2.712040e-001 
2585000000  8.468230e-001  2.567775e-001 
2590000000  8.528481e-001  2.423761e-001 
2595000000  8.581945e-001  2.281318e-001 
2600000000  8.633833e-001  2.135538e-001 
2605000000  8.680434e-001  1.985724e-001 
2610000000  8.721058e-001  1.851584e-001 
2615000000  8.761914e-001  1.710285e-001 
2620000000  8.796786e-001  1.567400e-001 
2625000000  8.828953e-001  1.428943e-001 
2630000000  8.863780e-001  1.292508e-001 
2635000000  8.893571e-001  1.153330e-001 
2640000000  8.921961e-001  1.012310e-001 
2645000000  8.947806e-001  8.732114e-002 
2650000000  8.971005e-001  7.339625e-002 
2655000000  8.991380e-001  5.953748e-002 
2660000000  9.013332e-001  4.561460e-002 
2665000000  9.033528e-001  3.122359e-002 
2670000000  9.050937e-001  1.691686e-002 
2675000000  9.062383e-001  2.673223e-003 
2680000000  9.071816e-001  -1.185293e-002 
2685000000  9.079142e-001  -2.602441e-002 
2690000000  9.084612e-001  -4.001033e-002 
2695000000  9.087003e-001  -5.444998e-002 
2700000000  9.087991e-001  -6.903606e-002 
2705000000  9.085476e-001  -8.354239e-002 
2710000000  9.079200e-001  -9.809053e-002 
2715000000  9.069876e-001  -1.122665e-001 
2720000000  9.060205e-001  -1.265193e-001 
2725000000  9.047976e-001  -1.408489e-001 
2730000000  9.032092e-001  -1.554103e-001 
2735000000  9.014612e-001  -1.698796e-001 
2740000000  8.990683e-001  -1.841962e-001 
2745000000  8.968859e-001  -1.980305e-001 
2750000000  8.937629e-001  -2.121221e-001 
2755000000  8.905070e-001  -2.261319e-001 
2760000000  8.874927e-001  -2.395316e-001 
2765000000  8.837391e-001  -2.532660e-001 
2770000000  8.800346e-001  -2.665638e-001 
2775000000  8.762929e-001  -2.800620e-001 
2780000000  8.722847e-001  -2.934906e-001 
2785000000  8.677184e-001  -3.060843e-001 
2790000000  8.631157e-001  -3.195954e-001 
2795000000  8.589060e-001  -3.318720e-001 
2800000000  8.535970e-001  -3.446253e-001 
2805000000  8.480936e-001  -3.571408e-001 
2810000000  8.427501e-001  -3.695605e-001 
2815000000  8.369740e-001  -3.818342e-001 
2820000000  8.309148e-001  -3.939059e-001 
2825000000  8.250954e-001  -4.060097e-001 
2830000000  8.190679e-001  -4.177571e-001 
2835000000  8.123476e-001  -4.293618e-001 
2840000000  8.058145e-001  -4.409316e-001 
2845000000  7.994181e-001  -4.519350e-001 
2850000000  7.921964e-001  -4.629715e-001 
2855000000  7.849279e-001  -4.740189e-001 
2860000000  7.777041e-001  -4.849556e-001 
2865000000  7.703877e-001  -4.957596e-001 
2870000000  7.624542e-001  -5.063429e-001 
2875000000  7.543377e-001  -5.165234e-001 
2880000000  7.463312e-001  -5.269186e-001 
2885000000  7.380791e-001  -5.367950e-001 
2890000000  7.298738e-001  -5.464864e-001 
2895000000  7.213660e-001  -5.562721e-001 
2900000000  7.123398e-001  -5.658144e-001 
2905000000  7.033578e-001  -5.750300e-001 
2910000000  6.942433e-001  -5.841043e-001 
2915000000  6.855018e-001  -5.931088e-001 
2920000000  6.761115e-001  -6.019450e-001 
2925000000  6.666950e-001  -6.104251e-001 
2930000000  6.567391e-001  -6.188484e-001 
2935000000  6.469623e-001  -6.270994e-001 
2940000000  6.371010e-001  -6.351104e-001 
2945000000  6.269773e-001  -6.429412e-001 
2950000000  6.168460e-001  -6.507196e-001 
2955000000  6.064383e-001  -6.582069e-001 
2960000000  5.960259e-001  -6.654889e-001 
2965000000  5.854721e-001  -6.723775e-001 
2970000000  5.749108e-001  -6.790165e-001 
2975000000  5.648513e-001  -6.858288e-001 
2980000000  5.541815e-001  -6.923919e-001 
2985000000  5.434823e-001  -6.987371e-001 
2990000000  5.326824e-001  -7.049021e-001 
2995000000  5.217217e-001  -7.107398e-001 
3000000000  5.107484e-001  -7.167072e-001 
3005000000  4.994482e-001  -7.222466e-001 
3010000000  4.883184e-001  -7.276360e-001 
3015000000  4.773119e-001  -7.328869e-001 
3020000000  4.660788e-001  -7.378693e-001 
3025000000  4.547935e-001  -7.426757e-001 
3030000000  4.436433e-001  -7.473775e-001 
3035000000  4.324356e-001  -7.519795e-001 
3040000000  4.208390e-001  -7.561204e-001 
3045000000  4.093845e-001  -7.601669e-001 
3050000000  3.978449e-001  -7.638016e-001 
3055000000  3.863971e-001  -7.674106e-001 
3060000000  3.749013e-001  -7.708077e-001 
3065000000  3.634090e-001  -7.737677e-001 
3070000000  3.521197e-001  -7.769942e-001 
3075000000  3.407208e-001  -7.797502e-001 
3080000000  3.292859e-001  -7.825383e-001 
3085000000  3.175021e-001  -7.849413e-001 
3090000000  3.057039e-001  -7.871619e-001 
3095000000  2.941749e-001  -7.887998e-001 
3100000000  2.817293e-001  -7.907186e-001 
3105000000  2.699710e-001  -7.924041e-001 
3110000000  2.585121e-001  -7.939521e-001 
3115000000  2.472045e-001  -7.953972e-001 
3120000000  2.354296e-001  -7.967690e-001 
3125000000  2.234301e-001  -7.980471e-001 
3130000000  2.114547e-001  -7.988209e-001 
3135000000  1.987501e-001  -7.996850e-001 
3140000000  1.859348e-001  -8.001406e-001 
3145000000  1.737714e-001  -8.003782e-001 
3150000000  1.612914e-001  -8.006902e-001 
3155000000  1.490221e-001  -8.009367e-001 
3160000000  1.371563e-001  -8.006635e-001 
3165000000  1.245952e-001  -8.004580e-001 
3170000000  1.122108e-001  -8.001227e-001 
3175000000  9.940936e-002  -7.995726e-001 
3180000000  8.653186e-002  -7.985946e-001 
3185000000  7.346241e-002  -7.973241e-001 
3190000000  6.014199e-002  -7.957278e-001 
3195000000  4.699078e-002  -7.938523e-001 
3200000000  3.385735e-002  -7.923010e-001 
3205000000  2.002039e-002  -7.902886e-001 
3210000000  7.162517e-003  -7.881760e-001 
3215000000  -8.109857e-003  -7.848766e-001 
3220000000  -2.245987e-002  -7.817765e-001 
3225000000  -3.623994e-002  -7.784438e-001 
3230000000  -4.908233e-002  -7.750271e-001 
3235000000  -6.167229e-002  -7.717941e-001 
3240000000  -7.508067e-002  -7.676705e-001 
3245000000  -8.865742e-002  -7.629080e-001 
3250000000  -1.025161e-001  -7.581209e-001 
3255000000  -1.159848e-001  -7.529839e-001 
3260000000  -1.296720e-001  -7.475139e-001 
3265000000  -1.431161e-001  -7.411458e-001 
3270000000  -1.560228e-001  -7.346795e-001 
3275000000  -1.688749e-001  -7.281782e-001 
3280000000  -1.821338e-001  -7.213784e-001 
3285000000  -1.944772e-001  -7.143227e-001 
3290000000  -2.071389e-001  -7.066903e-001 
3295000000  -2.197431e-001  -6.990528e-001 
3300000000  -2.321707e-001  -6.915454e-001 
3305000000  -2.451693e-001  -6.826982e-001 
3310000000  -2.583947e-001  -6.732447e-001 
3315000000  -2.713099e-001  -6.634568e-001 
3320000000  -2.840430e-001  -6.530458e-001 
3325000000  -2.967921e-001  -6.420943e-001 
3330000000  -3.095858e-001  -6.304184e-001 
3335000000  -3.224373e-001  -6.181315e-001 
3340000000  -3.353173e-001  -6.051421e-001 
3345000000  -3.486519e-001  -5.910044e-001 
3350000000  -3.614570e-001  -5.756069e-001 
3355000000  -3.741391e-001  -5.591794e-001 
3360000000  -3.864968e-001  -5.416276e-001 
3365000000  -3.986413e-001  -5.226111e-001 
3370000000  -4.097905e-001  -5.019355e-001 
3375000000  -4.200569e-001  -4.802676e-001 
3380000000  -4.295386e-001  -4.572613e-001 
3385000000  -4.379242e-001  -4.329804e-001 
3390000000  -4.452450e-001  -4.075003e-001 
3395000000  -4.513902e-001  -3.805675e-001 
3400000000  -4.562742e-001  -3.526260e-001 
3405000000  -4.571083e-001  -3.221540e-001 
3410000000  -4.559717e-001  -2.915112e-001 
3415000000  -4.522606e-001  -2.604663e-001 
3420000000  -4.461625e-001  -2.290366e-001 
3425000000  -4.369770e-001  -1.975372e-001 
3430000000  -4.245910e-001  -1.664821e-001 
3435000000  -4.090624e-001  -1.362106e-001 
3440000000  -3.903964e-001  -1.074817e-001 
3445000000  -3.692450e-001  -7.992300e-002 
3450000000  -3.449473e-001  -5.497824e-002 
3455000000  -3.186254e-001  -3.197355e-002 
3460000000  -2.894812e-001  -1.187962e-002 
3465000000  -2.583264e-001  4.742199e-003 
3470000000  -2.258209e-001  1.814028e-002 
3475000000  -1.922083e-001  2.798297e-002 
3480000000  -1.577981e-001  3.411473e-002 
3485000000  -1.232008e-001  3.628399e-002 
3490000000  -8.894371e-002  3.469798e-002 
3495000000  -5.558527e-002  2.947579e-002 
3500000000  -2.326398e-002  2.110150e-002 
3505000000  7.783996e-003  9.284301e-003 
3510000000  3.665721e-002  -5.450607e-003 
3515000000  6.351157e-002  -2.252983e-002 
3520000000  8.830719e-002  -4.184853e-002 
3525000000  1.105440e-001  -6.331297e-002 
3530000000  1.300293e-001  -8.636455e-002 
3535000000  1.468444e-001  -1.102982e-001 
3540000000  1.614140e-001  -1.349633e-001 
3545000000  1.735492e-001  -1.604276e-001 
3550000000  1.832179e-001  -1.861158e-001 
3555000000  1.903225e-001  -2.120787e-001 
3560000000  1.953989e-001  -2.377138e-001 
3565000000  1.986427e-001  -2.631302e-001 
3570000000  1.996582e-001  -2.885527e-001 
3575000000  1.984376e-001  -3.134076e-001 
3580000000  1.952903e-001  -3.374245e-001 
3585000000  1.905537e-001  -3.605342e-001 
3590000000  1.845474e-001  -3.825335e-001 
3595000000  1.770975e-001  -4.040267e-001 
3600000000  1.689095e-001  -4.243452e-001 
3605000000  1.593418e-001  -4.436733e-001 
3610000000  1.484125e-001  -4.622944e-001 
3615000000  1.368811e-001  -4.799402e-001 
3620000000  1.242699e-001  -4.964807e-001 
3625000000  1.107251e-001  -5.120111e-001 
3630000000  9.692337e-002  -5.263081e-001 
3635000000  8.235515e-002  -5.396093e-001 
3640000000  6.692184e-002  -5.521560e-001 
3645000000  5.101066e-002  -5.636124e-001 
3650000000  3.461216e-002  -5.739277e-001 
3655000000  1.791302e-002  -5.832624e-001 
3660000000  1.102162e-003  -5.917503e-001 
3665000000  -1.627773e-002  -5.994078e-001 
3670000000  -3.401922e-002  -6.062684e-001 
3675000000  -5.203510e-002  -6.120349e-001 
3680000000  -7.017444e-002  -6.169897e-001 
3685000000  -8.830475e-002  -6.211389e-001 
3690000000  -1.067504e-001  -6.248221e-001 
3695000000  -1.255014e-001  -6.276104e-001 
3700000000  -1.444044e-001  -6.295151e-001 
3705000000  -1.633128e-001  -6.306334e-001 
3710000000  -1.821803e-001  -6.307818e-001 
3715000000  -2.011525e-001  -6.303044e-001 
3720000000  -2.199612e-001  -6.289562e-001 
3725000000  -2.390097e-001  -6.266396e-001 
3730000000  -2.579156e-001  -6.239251e-001 
3735000000  -2.769110e-001  -6.203919e-001 
3740000000  -2.958579e-001  -6.157272e-001 
3745000000  -3.144014e-001  -6.105820e-001 
3750000000  -3.329317e-001  -6.046906e-001 
3755000000  -3.511760e-001  -5.980809e-001 
3760000000  -3.692147e-001  -5.905898e-001 
3765000000  -3.869918e-001  -5.825129e-001 
3770000000  -4.042258e-001  -5.738088e-001 
3775000000  -4.210760e-001  -5.645124e-001 
3780000000  -4.378825e-001  -5.545581e-001 
3785000000  -4.540586e-001  -5.440240e-001 
3790000000  -4.705315e-001  -5.327555e-001 
3795000000  -4.858045e-001  -5.207914e-001 
3800000000  -5.004199e-001  -5.081961e-001 
3805000000  -5.149127e-001  -4.952548e-001 
3810000000  -5.286206e-001  -4.819196e-001 
3815000000  -5.416831e-001  -4.681017e-001 
3820000000  -5.551220e-001  -4.531129e-001 
3825000000  -5.665996e-001  -4.387970e-001 
3830000000  -5.785464e-001  -4.232785e-001 
3835000000  -5.900072e-001  -4.074161e-001 
3840000000  -6.005154e-001  -3.910706e-001 
3845000000  -6.102933e-001  -3.738724e-001 
3850000000  -6.196988e-001  -3.571165e-001 
3855000000  -6.287954e-001  -3.400207e-001 
3860000000  -6.377350e-001  -3.220196e-001 
3865000000  -6.451530e-001  -3.044274e-001 
3870000000  -6.525846e-001  -2.864607e-001 
3875000000  -6.596080e-001  -2.671148e-001 
3880000000  -6.656086e-001  -2.479555e-001 
3885000000  -6.706805e-001  -2.286542e-001 
3890000000  -6.756334e-001  -2.088156e-001 
3895000000  -6.796678e-001  -1.892094e-001 
3900000000  -6.829236e-001  -1.685630e-001 
3905000000  -6.849841e-001  -1.484232e-001 
3910000000  -6.869535e-001  -1.276999e-001 
3915000000  -6.882941e-001  -1.073241e-001 
3920000000  -6.888749e-001  -8.645224e-002 
3925000000  -6.888353e-001  -6.537483e-002 
3930000000  -6.875547e-001  -4.418743e-002 
3935000000  -6.855040e-001  -2.344483e-002 
3940000000  -6.834491e-001  -1.640962e-003 
3945000000  -6.800573e-001  1.871176e-002 
3950000000  -6.765102e-001  3.955458e-002 
3955000000  -6.714888e-001  6.085724e-002 
3960000000  -6.658475e-001  8.131658e-002 
3965000000  -6.593162e-001  1.018468e-001 
3970000000  -6.523486e-001  1.210523e-001 
3975000000  -6.452154e-001  1.403465e-001 
3980000000  -6.370173e-001  1.592770e-001 
3985000000  -6.283382e-001  1.786397e-001 
3990000000  -6.188070e-001  1.969362e-001 
3995000000  -6.083161e-001  2.154687e-001 
4000000000  -5.978394e-001  2.322864e-001 
4005000000  -5.865363e-001  2.491497e-001 
4010000000  -5.744727e-001  2.658592e-001 
4015000000  -5.621470e-001  2.818760e-001 
4020000000  -5.489778e-001  2.975156e-001 
4025000000  -5.356670e-001  3.116862e-001 
4030000000  -5.220628e-001  3.263248e-001 
4035000000  -5.087030e-001  3.395897e-001 
4040000000  -4.950324e-001  3.531466e-001 
4045000000  -4.805006e-001  3.664509e-001 
4050000000  -4.657175e-001  3.791888e-001 
4055000000  -4.502470e-001  3.913053e-001 
4060000000  -4.346921e-001  4.025201e-001 
4065000000  -4.194032e-001  4.135713e-001 
4070000000  -4.035252e-001  4.242777e-001 
4075000000  -3.871321e-001  4.347763e-001 
4080000000  -3.705326e-001  4.444686e-001 
4085000000  -3.533410e-001  4.540469e-001 
4090000000  -3.360811e-001  4.630669e-001 
4095000000  -3.184339e-001  4.714061e-001 
4100000000  -3.001911e-001  4.795537e-001 
4105000000  -2.816992e-001  4.870897e-001 
4110000000  -2.628136e-001  4.942789e-001 
4115000000  -2.431719e-001  5.006275e-001 
4120000000  -2.236376e-001  5.062824e-001 
4125000000  -2.038859e-001  5.114156e-001 
4130000000  -1.833654e-001  5.161231e-001 
4135000000  -1.634167e-001  5.193748e-001 
4140000000  -1.426793e-001  5.223424e-001 
4145000000  -1.228207e-001  5.242674e-001 
4150000000  -1.023072e-001  5.258415e-001 
4155000000  -8.183707e-002  5.265833e-001 
4160000000  -6.169392e-002  5.264392e-001 
4165000000  -4.083501e-002  5.256940e-001 
4170000000  -2.090480e-002  5.240230e-001 
4175000000  -1.935401e-004  5.217183e-001 
4180000000  1.979351e-002  5.183696e-001 
4185000000  3.967054e-002  5.142522e-001 
4190000000  5.959015e-002  5.094072e-001 
4195000000  7.938027e-002  5.041413e-001 
4200000000  9.826498e-002  4.980523e-001 
4205000000  1.171911e-001  4.913966e-001 
4210000000  1.360718e-001  4.840409e-001 
4215000000  1.550150e-001  4.757752e-001 
4220000000  1.729070e-001  4.669082e-001 
4225000000  1.908924e-001  4.570795e-001 
4230000000  2.078030e-001  4.468064e-001 
4235000000  2.247864e-001  4.358577e-001 
4240000000  2.409579e-001  4.243430e-001 
4245000000  2.572931e-001  4.119042e-001 
4250000000  2.719142e-001  3.992552e-001 
4255000000  2.865821e-001  3.863187e-001 
4260000000  3.009718e-001  3.728344e-001 
4265000000  3.151493e-001  3.584881e-001 
4270000000  3.283981e-001  3.438362e-001 
4275000000  3.415238e-001  3.286414e-001 
4280000000  3.539912e-001  3.132630e-001 
4285000000  3.657385e-001  2.974625e-001 
4290000000  3.767287e-001  2.809753e-001 
4295000000  3.869166e-001  2.638901e-001 
4300000000  3.963670e-001  2.468201e-001 
4305000000  4.052278e-001  2.301502e-001 
4310000000  4.132029e-001  2.134344e-001 
4315000000  4.211243e-001  1.962048e-001 
4320000000  4.282818e-001  1.794171e-001 
4325000000  4.347197e-001  1.619843e-001 
4330000000  4.406575e-001  1.443129e-001 
4335000000  4.460216e-001  1.267375e-001 
4340000000  4.503461e-001  1.091715e-001 
4345000000  4.539645e-001  9.209107e-002 
4350000000  4.571132e-001  7.458732e-002 
4355000000  4.596637e-001  5.681439e-002 
4360000000  4.612686e-001  3.937462e-002 
4365000000  4.619840e-001  2.233292e-002 
4370000000  4.620873e-001  5.376016e-003 
4375000000  4.614734e-001  -1.128234e-002 
4380000000  4.607746e-001  -2.751940e-002 
4385000000  4.592282e-001  -4.395016e-002 
4390000000  4.571609e-001  -5.966289e-002 
4395000000  4.546871e-001  -7.551490e-002 
4400000000  4.519700e-001  -9.096293e-002 
4405000000  4.491144e-001  -1.062321e-001 
4410000000  4.453321e-001  -1.216052e-001 
4415000000  4.410604e-001  -1.373801e-001 
4420000000  4.363432e-001  -1.526563e-001 
4425000000  4.311379e-001  -1.675506e-001 
4430000000  4.254876e-001  -1.825928e-001 
4435000000  4.191980e-001  -1.970085e-001 
4440000000  4.128227e-001  -2.116980e-001 
4445000000  4.057443e-001  -2.264036e-001 
4450000000  3.985680e-001  -2.410307e-001 
4455000000  3.906953e-001  -2.553843e-001 
4460000000  3.826789e-001  -2.695092e-001 
4465000000  3.743091e-001  -2.835853e-001 
4470000000  3.653242e-001  -2.981382e-001 
4475000000  3.562326e-001  -3.121563e-001 
4480000000  3.461548e-001  -3.263102e-001 
4485000000  3.352772e-001  -3.402894e-001 
4490000000  3.245440e-001  -3.535194e-001 
4495000000  3.125225e-001  -3.670097e-001 
4500000000  3.007158e-001  -3.791815e-001 
4505000000  2.886296e-001  -3.910285e-001 
4510000000  2.765389e-001  -4.027106e-001 
4515000000  2.632065e-001  -4.143330e-001 
4520000000  2.502829e-001  -4.249043e-001 
4525000000  2.366649e-001  -4.351293e-001 
4530000000  2.234520e-001  -4.445715e-001 
4535000000  2.096591e-001  -4.537075e-001 
4540000000  1.952394e-001  -4.626124e-001 
4545000000  1.811299e-001  -4.704559e-001 
4550000000  1.663559e-001  -4.781674e-001 
4555000000  1.515992e-001  -4.845045e-001 
4560000000  1.365237e-001  -4.907539e-001 
4565000000  1.215445e-001  -4.956355e-001 
4570000000  1.063342e-001  -5.002399e-001 
4575000000  9.143084e-002  -5.040879e-001 
4580000000  7.636281e-002  -5.074071e-001 
4585000000  6.156204e-002  -5.100312e-001 
4590000000  4.648113e-002  -5.121948e-001 
4595000000  3.081063e-002  -5.138903e-001 
4600000000  1.533882e-002  -5.148551e-001 
4605000000  -2.215883e-005  -5.149633e-001 
4610000000  -1.587673e-002  -5.146270e-001 
4615000000  -3.161252e-002  -5.134713e-001 
4620000000  -4.789529e-002  -5.114487e-001 
4625000000  -6.356842e-002  -5.086386e-001 
4630000000  -7.963116e-002  -5.051153e-001 
4635000000  -9.511616e-002  -5.012507e-001 
4640000000  -1.106516e-001  -4.967195e-001 
4645000000  -1.259016e-001  -4.915965e-001 
4650000000  -1.413179e-001  -4.860314e-001 
4655000000  -1.574696e-001  -4.800270e-001 
4660000000  -1.727197e-001  -4.735179e-001 
4665000000  -1.885197e-001  -4.661416e-001 
4670000000  -2.043006e-001  -4.579950e-001 
4675000000  -2.189858e-001  -4.492256e-001 
4680000000  -2.346531e-001  -4.396110e-001 
4685000000  -2.486623e-001  -4.294954e-001 
4690000000  -2.625175e-001  -4.188266e-001 
4695000000  -2.762571e-001  -4.080119e-001 
4700000000  -2.899881e-001  -3.967981e-001 
4705000000  -3.028031e-001  -3.851440e-001 
4710000000  -3.153852e-001  -3.727472e-001 
4715000000  -3.272200e-001  -3.599773e-001 
4720000000  -3.389618e-001  -3.470252e-001 
4725000000  -3.500346e-001  -3.336870e-001 
4730000000  -3.606339e-001  -3.200724e-001 
4735000000  -3.710430e-001  -3.057539e-001 
4740000000  -3.807267e-001  -2.909652e-001 
4745000000  -3.898220e-001  -2.756767e-001 
4750000000  -3.977515e-001  -2.601848e-001 
4755000000  -4.049773e-001  -2.444241e-001 
4760000000  -4.115419e-001  -2.284425e-001 
4765000000  -4.172104e-001  -2.123223e-001 
4770000000  -4.223082e-001  -1.959126e-001 
4775000000  -4.262145e-001  -1.801655e-001 
4780000000  -4.298582e-001  -1.639249e-001 
4785000000  -4.330077e-001  -1.476786e-001 
4790000000  -4.355184e-001  -1.314199e-001 
4795000000  -4.372846e-001  -1.146738e-001 
4800000000  -4.383076e-001  -9.802666e-002 
4805000000  -4.385800e-001  -8.110888e-002 
4810000000  -4.378346e-001  -6.437558e-002 
4815000000  -4.364850e-001  -4.732205e-002 
4820000000  -4.342272e-001  -3.067726e-002 
4825000000  -4.314632e-001  -1.423129e-002 
4830000000  -4.277860e-001  2.269485e-003 
4835000000  -4.232500e-001  1.833655e-002 
4840000000  -4.180719e-001  3.359380e-002 
4845000000  -4.125027e-001  4.968492e-002 
4850000000  -4.062092e-001  6.449217e-002 
4855000000  -3.995230e-001  7.958256e-002 
4860000000  -3.915623e-001  9.470056e-002 
4865000000  -3.836993e-001  1.091388e-001 
4870000000  -3.748890e-001  1.233329e-001 
4875000000  -3.651898e-001  1.369188e-001 
4880000000  -3.550372e-001  1.501725e-001 
4885000000  -3.442402e-001  1.627186e-001 
4890000000  -3.329902e-001  1.746395e-001 
4895000000  -3.211383e-001  1.858324e-001 
4900000000  -3.088308e-001  1.962608e-001 
4905000000  -2.962636e-001  2.066000e-001 
4910000000  -2.834265e-001  2.163487e-001 
4915000000  -2.698555e-001  2.253957e-001 
4920000000  -2.558758e-001  2.336872e-001 
4925000000  -2.420291e-001  2.412395e-001 
4930000000  -2.277160e-001  2.484290e-001 
4935000000  -2.126141e-001  2.552906e-001 
4940000000  -1.970266e-001  2.612238e-001 
4945000000  -1.813200e-001  2.662447e-001 
4950000000  -1.650189e-001  2.704239e-001 
4955000000  -1.488524e-001  2.735250e-001 
4960000000  -1.325930e-001  2.758132e-001 
4965000000  -1.160162e-001  2.773268e-001 
4970000000  -9.950801e-002  2.781616e-001 
4975000000  -8.312986e-002  2.781813e-001 
4980000000  -6.650908e-002  2.774326e-001 
4985000000  -4.992160e-002  2.755770e-001 
4990000000  -3.377328e-002  2.730050e-001 
4995000000  -1.795476e-002  2.696026e-001 
5000000000  -2.536372e-003  2.656128e-001 
5005000000  1.261555e-002  2.612894e-001 
5010000000  2.772532e-002  2.560855e-001 
5015000000  4.257027e-002  2.500103e-001 
5020000000  5.676790e-002  2.431059e-001 
5025000000  7.082733e-002  2.352167e-001 
5030000000  8.359456e-002  2.264247e-001 
5035000000  9.540746e-002  2.171213e-001 
5040000000  1.062576e-001  2.073760e-001 
5045000000  1.161822e-001  1.972595e-001 
5050000000  1.252359e-001  1.870532e-001 
5055000000  1.334739e-001  1.765606e-001 
5060000000  1.409043e-001  1.656806e-001 
5065000000  1.473269e-001  1.544750e-001 
5070000000  1.527362e-001  1.431686e-001 
5075000000  1.573303e-001  1.316254e-001 
5080000000  1.607181e-001  1.199712e-001 
5085000000  1.629035e-001  1.084056e-001 
5090000000  1.638894e-001  9.702549e-002 
5095000000  1.638691e-001  8.612188e-002 
5100000000  1.629278e-001  7.552513e-002 
5105000000  1.611052e-001  6.542134e-002 
5110000000  1.582704e-001  5.583495e-002 
5115000000  1.546174e-001  4.688418e-002 
5120000000  1.502855e-001  3.868934e-002 
5125000000  1.455166e-001  3.132850e-002 
5130000000  1.402591e-001  2.461901e-002 
5135000000  1.344449e-001  1.835660e-002 
5140000000  1.282173e-001  1.293793e-002 
5145000000  1.216868e-001  8.509600e-003 
5150000000  1.150090e-001  4.822907e-003 
5155000000  1.080158e-001  1.782554e-003 
5160000000  1.010280e-001  8.858559e-005 
5165000000  9.401617e-002  -1.053175e-003 
5170000000  8.741607e-002  -1.096309e-003 
5175000000  8.101816e-002  -2.213581e-005 
5180000000  7.528840e-002  1.907816e-003 
5185000000  7.004698e-002  4.728685e-003 
5190000000  6.577301e-002  8.385944e-003 
5195000000  6.236366e-002  1.245761e-002 
5200000000  5.968143e-002  1.715100e-002 
5205000000  5.791358e-002  2.211206e-002 
5210000000  5.698036e-002  2.735137e-002 
5215000000  5.678261e-002  3.273908e-002 
5220000000  5.729382e-002  3.839720e-002 
5225000000  5.853873e-002  4.413028e-002 
5230000000  6.020070e-002  5.004114e-002 
5235000000  6.274968e-002  5.659810e-002 
5240000000  6.644210e-002  6.327689e-002 
5245000000  7.130001e-002  6.987988e-002 
5250000000  7.723118e-002  7.620987e-002 
5255000000  8.423540e-002  8.217569e-002 
5260000000  9.206048e-002  8.738674e-002 
5265000000  1.004141e-001  9.206508e-002 
5270000000  1.094042e-001  9.621386e-002 
5275000000  1.187738e-001  9.973139e-002 
5280000000  1.284038e-001  1.027135e-001 
5285000000  1.384293e-001  1.054329e-001 
5290000000  1.490741e-001  1.076953e-001 
5295000000  1.602595e-001  1.092713e-001 
5300000000  1.716080e-001  1.102308e-001 
5305000000  1.834635e-001  1.103842e-001 
5310000000  1.956073e-001  1.099476e-001 
5315000000  2.081512e-001  1.085674e-001 
5320000000  2.209077e-001  1.060881e-001 
5325000000  2.334674e-001  1.024398e-001 
5330000000  2.457879e-001  9.743796e-002 
5335000000  2.573452e-001  9.207436e-002 
5340000000  2.687701e-001  8.590103e-002 
5345000000  2.799618e-001  7.892998e-002 
5350000000  2.906795e-001  7.128671e-002 
5355000000  3.010862e-001  6.292211e-002 
5360000000  3.110616e-001  5.418034e-002 
5365000000  3.207134e-001  4.425461e-002 
5370000000  3.298914e-001  3.396962e-002 
5375000000  3.387297e-001  2.302776e-002 
5380000000  3.469565e-001  1.161072e-002 
5385000000  3.545860e-001  -4.382173e-004 
5390000000  3.618382e-001  -1.318769e-002 
5395000000  3.683314e-001  -2.636291e-002 
5400000000  3.740722e-001  -3.994050e-002 
5405000000  3.790973e-001  -5.365202e-002 
5410000000  3.832369e-001  -6.770436e-002 
5415000000  3.869236e-001  -8.181735e-002 
5420000000  3.899013e-001  -9.590011e-002 
5425000000  3.923887e-001  -1.102001e-001 
5430000000  3.942879e-001  -1.245434e-001 
5435000000  3.957466e-001  -1.389531e-001 
5440000000  3.965553e-001  -1.534264e-001 
5445000000  3.967523e-001  -1.680690e-001 
5450000000  3.964119e-001  -1.825543e-001 
5455000000  3.953503e-001  -1.968705e-001 
5460000000  3.939533e-001  -2.111094e-001 
5465000000  3.918624e-001  -2.251825e-001 
5470000000  3.892487e-001  -2.390155e-001 
5475000000  3.861475e-001  -2.524884e-001 
5480000000  3.824460e-001  -2.657113e-001 
5485000000  3.783784e-001  -2.785714e-001 
5490000000  3.739226e-001  -2.910397e-001 
5495000000  3.690431e-001  -3.033512e-001 
5500000000  3.635818e-001  -3.153033e-001 
5505000000  3.577719e-001  -3.269114e-001 
5510000000  3.514695e-001  -3.382349e-001 
5515000000  3.447361e-001  -3.492441e-001 
5520000000  3.373362e-001  -3.600205e-001 
5525000000  3.295592e-001  -3.699824e-001 
5530000000  3.213892e-001  -3.798343e-001 
5535000000  3.129628e-001  -3.891617e-001 
5540000000  3.041702e-001  -3.981817e-001 
5545000000  2.951086e-001  -4.069590e-001 
5550000000  2.857428e-001  -4.153751e-001 
5555000000  2.761397e-001  -4.234644e-001 
5560000000  2.662982e-001  -4.311219e-001 
5565000000  2.561238e-001  -4.386654e-001 
5570000000  2.454897e-001  -4.458365e-001 
5575000000  2.346138e-001  -4.526919e-001 
5580000000  2.233113e-001  -4.591081e-001 
5585000000  2.116386e-001  -4.651245e-001 
5590000000  2.000299e-001  -4.705127e-001 
5595000000  1.882634e-001  -4.755391e-001 
5600000000  1.763866e-001  -4.801511e-001 
5605000000  1.646840e-001  -4.845565e-001 
5610000000  1.527174e-001  -4.885593e-001 
5615000000  1.409464e-001  -4.921152e-001 
5620000000  1.285776e-001  -4.959762e-001 
5625000000  1.161689e-001  -4.990166e-001 
5630000000  1.042245e-001  -5.017390e-001 
5635000000  9.219014e-002  -5.043041e-001 
5640000000  8.020347e-002  -5.064993e-001 
5645000000  6.810978e-002  -5.085623e-001 
5650000000  5.636793e-002  -5.102344e-001 
5655000000  4.458012e-002  -5.115778e-001 
5660000000  3.304303e-002  -5.125727e-001 
5665000000  2.165080e-002  -5.134107e-001 
5670000000  1.049845e-002  -5.139213e-001 
5675000000  -6.630179e-004  -5.142547e-001 
5680000000  -1.169322e-002  -5.142613e-001 
5685000000  -2.260053e-002  -5.140227e-001 
5690000000  -3.367035e-002  -5.135723e-001 
5695000000  -4.475928e-002  -5.125567e-001 
5700000000  -5.576890e-002  -5.110661e-001 
5705000000  -6.654045e-002  -5.090249e-001 
5710000000  -7.685215e-002  -5.066277e-001 
5715000000  -8.794142e-002  -5.041884e-001 
5720000000  -9.835384e-002  -5.010449e-001 
5725000000  -1.090284e-001  -4.971832e-001 
5730000000  -1.187868e-001  -4.930106e-001 
5735000000  -1.291441e-001  -4.883353e-001 
5740000000  -1.391490e-001  -4.831790e-001 
5745000000  -1.489597e-001  -4.775277e-001 
5750000000  -1.586009e-001  -4.713191e-001 
5755000000  -1.680453e-001  -4.648648e-001 
5760000000  -1.774036e-001  -4.577018e-001 
5765000000  -1.868586e-001  -4.499672e-001 
5770000000  -1.954073e-001  -4.416180e-001 
5775000000  -2.039154e-001  -4.327649e-001 
5780000000  -2.120456e-001  -4.234974e-001 
5785000000  -2.199742e-001  -4.137465e-001 
5790000000  -2.274978e-001  -4.035124e-001 
5795000000  -2.341950e-001  -3.928533e-001 
5800000000  -2.412103e-001  -3.818659e-001 
5805000000  -2.473687e-001  -3.703783e-001 
5810000000  -2.530714e-001  -3.586182e-001 
5815000000  -2.581595e-001  -3.466922e-001 
5820000000  -2.625093e-001  -3.346883e-001 
5825000000  -2.664424e-001  -3.224173e-001 
5830000000  -2.697071e-001  -3.100533e-001 
5835000000  -2.724096e-001  -2.976780e-001 
5840000000  -2.744270e-001  -2.853272e-001 
5845000000  -2.758038e-001  -2.726984e-001 
5850000000  -2.760765e-001  -2.602140e-001 
5855000000  -2.755196e-001  -2.479889e-001 
5860000000  -2.740578e-001  -2.359602e-001 
5865000000  -2.716907e-001  -2.244819e-001 
5870000000  -2.687131e-001  -2.133890e-001 
5875000000  -2.650363e-001  -2.030498e-001 
5880000000  -2.606927e-001  -1.930094e-001 
5885000000  -2.557416e-001  -1.833773e-001 
5890000000  -2.499797e-001  -1.744529e-001 
5895000000  -2.436860e-001  -1.660632e-001 
5900000000  -2.366442e-001  -1.583970e-001 
5905000000  -2.289489e-001  -1.514866e-001 
5910000000  -2.210199e-001  -1.452724e-001 
5915000000  -2.123681e-001  -1.398413e-001 
5920000000  -2.032304e-001  -1.350028e-001 
5925000000  -1.935039e-001  -1.311590e-001 
5930000000  -1.834011e-001  -1.284152e-001 
5935000000  -1.731330e-001  -1.265597e-001 
5940000000  -1.626792e-001  -1.256608e-001 
5945000000  -1.522596e-001  -1.259045e-001 
5950000000  -1.419965e-001  -1.268473e-001 
5955000000  -1.315115e-001  -1.288391e-001 
5960000000  -1.218311e-001  -1.314098e-001 
5965000000  -1.122718e-001  -1.348273e-001 
5970000000  -1.027709e-001  -1.388434e-001 
5975000000  -9.410360e-002  -1.436479e-001 
5980000000  -8.567219e-002  -1.492100e-001 
5985000000  -7.785999e-002  -1.555663e-001 
5990000000  -7.064178e-002  -1.624420e-001 
5995000000  -6.430840e-002  -1.699661e-001 
6000000000  -5.880236e-002  -1.778487e-001 
