!Agilent Technologies,E8364B,MY43040633,A.07.50.37
!Agilent E8364B: A.07.50.37
!Date: Tuesday, December 16, 2025 17:03:09
!Correction: S11(Full 1 Port(1)) 
!S1P File: Measurement: S11:
# Hz S  RI   R 50
1000000000  4.278639e-001  8.090530e-001 
1005000000  4.616535e-001  7.799399e-001 
1010000000  4.969966e-001  7.473701e-001 
1015000000  5.332402e-001  7.078133e-001 
1020000000  5.695419e-001  6.615576e-001 
1025000000  6.041293e-001  6.068291e-001 
1030000000  6.371393e-001  5.436104e-001 
1035000000  6.666195e-001  4.689059e-001 
1040000000  6.894404e-001  3.827796e-001 
1045000000  7.013742e-001  2.851898e-001 
1050000000  7.001589e-001  1.732708e-001 
1055000000  6.779014e-001  5.054655e-002 
1060000000  6.293906e-001  -7.955483e-002 
1065000000  5.479693e-001  -2.105577e-001 
1070000000  4.291077e-001  -3.301586e-001 
1075000000  2.737519e-001  -4.236332e-001 
1080000000  9.293307e-002  -4.757593e-001 
1085000000  -9.612589e-002  -4.792937e-001 
1090000000  -2.773131e-001  -4.342515e-001 
1095000000  -4.328520e-001  -3.493814e-001 
1100000000  -5.546690e-001  -2.384237e-001 
1105000000  -6.408772e-001  -1.149273e-001 
1110000000  -6.941656e-001  7.924861e-003 
1115000000  -7.226028e-001  1.244442e-001 
1120000000  -7.317562e-001  2.321368e-001 
1125000000  -7.257076e-001  3.272947e-001 
1130000000  -7.092008e-001  4.125229e-001 
1135000000  -6.861840e-001  4.855311e-001 
1140000000  -6.593736e-001  5.475246e-001 
1145000000  -6.291170e-001  6.024950e-001 
1150000000  -5.989774e-001  6.485316e-001 
1155000000  -5.677509e-001  6.893645e-001 
1160000000  -5.375100e-001  7.240400e-001 
1165000000  -5.071297e-001  7.539232e-001 
1170000000  -4.776038e-001  7.801379e-001 
1175000000  -4.494446e-001  8.032124e-001 
1180000000  -4.232109e-001  8.225519e-001 
1185000000  -3.970432e-001  8.401780e-001 
1190000000  -3.711852e-001  8.559442e-001 
1195000000  -3.473712e-001  8.693454e-001 
1200000000  -3.239802e-001  8.815826e-001 
1205000000  -3.015068e-001  8.921894e-001 
1210000000  -2.786935e-001  9.023989e-001 
1215000000  -2.585194e-001  9.104683e-001 
1220000000  -2.374158e-001  9.181373e-001 
1225000000  -2.175130e-001  9.246262e-001 
1230000000  -1.977194e-001  9.305195e-001 
1235000000  -1.794909e-001  9.354024e-001 
1240000000  -1.613797e-001  9.393237e-001 
1245000000  -1.440234e-001  9.430319e-001 
1250000000  -1.274675e-001  9.457046e-001 
1255000000  -1.110772e-001  9.485773e-001 
1260000000  -9.502644e-002  9.509517e-001 
1265000000  -7.933325e-002  9.534098e-001 
1270000000  -6.425208e-002  9.546627e-001 
1275000000  -5.005691e-002  9.556689e-001 
1280000000  -3.515023e-002  9.567693e-001 
1285000000  -2.191386e-002  9.575739e-001 
1290000000  -8.280256e-003  9.584488e-001 
1295000000  5.893866e-003  9.588811e-001 
1300000000  1.848905e-002  9.593995e-001 
1305000000  3.143148e-002  9.598105e-001 
1310000000  4.455981e-002  9.599029e-001 
1315000000  5.809521e-002  9.595607e-001 
1320000000  7.108763e-002  9.590479e-001 
1325000000  8.359149e-002  9.575772e-001 
1330000000  9.664704e-002  9.566708e-001 
1335000000  1.078121e-001  9.549361e-001 
1340000000  1.207076e-001  9.536534e-001 
1345000000  1.311942e-001  9.518332e-001 
1350000000  1.432782e-001  9.497657e-001 
1355000000  1.547038e-001  9.475756e-001 
1360000000  1.658521e-001  9.451726e-001 
1365000000  1.772328e-001  9.420350e-001 
1370000000  1.873744e-001  9.390501e-001 
1375000000  1.976026e-001  9.365777e-001 
1380000000  2.082700e-001  9.333520e-001 
1385000000  2.172333e-001  9.304217e-001 
1390000000  2.265214e-001  9.267693e-001 
1395000000  2.366333e-001  9.236887e-001 
1400000000  2.448170e-001  9.217479e-001 
1405000000  2.548307e-001  9.186321e-001 
1410000000  2.629421e-001  9.165513e-001 
1415000000  2.734154e-001  9.144316e-001 
1420000000  2.829811e-001  9.111053e-001 
1425000000  2.924183e-001  9.085241e-001 
1430000000  3.012210e-001  9.065897e-001 
1435000000  3.111355e-001  9.034558e-001 
1440000000  3.215156e-001  9.000397e-001 
1445000000  3.311597e-001  8.956398e-001 
1450000000  3.405203e-001  8.926064e-001 
1455000000  3.500105e-001  8.881871e-001 
1460000000  3.586682e-001  8.840404e-001 
1465000000  3.675731e-001  8.800036e-001 
1470000000  3.773323e-001  8.755744e-001 
1475000000  3.853520e-001  8.708408e-001 
1480000000  3.943104e-001  8.671172e-001 
1485000000  4.038430e-001  8.615454e-001 
1490000000  4.118559e-001  8.565736e-001 
1495000000  4.205433e-001  8.521874e-001 
1500000000  4.290972e-001  8.472193e-001 
1505000000  4.373570e-001  8.413977e-001 
1510000000  4.442134e-001  8.365334e-001 
1515000000  4.522835e-001  8.313063e-001 
1520000000  4.597157e-001  8.254856e-001 
1525000000  4.663450e-001  8.197288e-001 
1530000000  4.724821e-001  8.147563e-001 
1535000000  4.787288e-001  8.106050e-001 
1540000000  4.849994e-001  8.079270e-001 
1545000000  4.920430e-001  8.040183e-001 
1550000000  5.006661e-001  7.997559e-001 
1555000000  5.085778e-001  7.952614e-001 
1560000000  5.164130e-001  7.905812e-001 
1565000000  5.252097e-001  7.858058e-001 
1570000000  5.335553e-001  7.804797e-001 
1575000000  5.412476e-001  7.745216e-001 
1580000000  5.487692e-001  7.675574e-001 
1585000000  5.555442e-001  7.618711e-001 
1590000000  5.624005e-001  7.554595e-001 
1595000000  5.685322e-001  7.507406e-001 
1600000000  5.756649e-001  7.449713e-001 
1605000000  5.825186e-001  7.387939e-001 
1610000000  5.893735e-001  7.325375e-001 
1615000000  5.963156e-001  7.264380e-001 
1620000000  6.032333e-001  7.199199e-001 
1625000000  6.095794e-001  7.136192e-001 
1630000000  6.157748e-001  7.062528e-001 
1635000000  6.220223e-001  6.993471e-001 
1640000000  6.263787e-001  6.923590e-001 
1645000000  6.318226e-001  6.861522e-001 
1650000000  6.373312e-001  6.793588e-001 
1655000000  6.424181e-001  6.728293e-001 
1660000000  6.475025e-001  6.661937e-001 
1665000000  6.526609e-001  6.589989e-001 
1670000000  6.556631e-001  6.517752e-001 
1675000000  6.585804e-001  6.458076e-001 
1680000000  6.619902e-001  6.416474e-001 
1685000000  6.670271e-001  6.382689e-001 
1690000000  6.734154e-001  6.339916e-001 
1695000000  6.803674e-001  6.291650e-001 
1700000000  6.877198e-001  6.232575e-001 
1705000000  6.947745e-001  6.165850e-001 
1710000000  7.014789e-001  6.089519e-001 
1715000000  7.070112e-001  6.005183e-001 
1720000000  7.124884e-001  5.915572e-001 
1725000000  7.169266e-001  5.832614e-001 
1730000000  7.198960e-001  5.756282e-001 
1735000000  7.228667e-001  5.682968e-001 
1740000000  7.261102e-001  5.619193e-001 
1745000000  7.303392e-001  5.552961e-001 
1750000000  7.338034e-001  5.491725e-001 
1755000000  7.386487e-001  5.429702e-001 
1760000000  7.439322e-001  5.365415e-001 
1765000000  7.493217e-001  5.287461e-001 
1770000000  7.531744e-001  5.217894e-001 
1775000000  7.583484e-001  5.142816e-001 
1780000000  7.623302e-001  5.067339e-001 
1785000000  7.658510e-001  4.992621e-001 
1790000000  7.699839e-001  4.923429e-001 
1795000000  7.737983e-001  4.849629e-001 
1800000000  7.776766e-001  4.781141e-001 
1805000000  7.822149e-001  4.713891e-001 
1810000000  7.869066e-001  4.641220e-001 
1815000000  7.919352e-001  4.562409e-001 
1820000000  7.968646e-001  4.483843e-001 
1825000000  8.010476e-001  4.396733e-001 
1830000000  8.053256e-001  4.315171e-001 
1835000000  8.098922e-001  4.223054e-001 
1840000000  8.129388e-001  4.135100e-001 
1845000000  8.161123e-001  4.049938e-001 
1850000000  8.198602e-001  3.959520e-001 
1855000000  8.229690e-001  3.866158e-001 
1860000000  8.262097e-001  3.773384e-001 
1865000000  8.287336e-001  3.686976e-001 
1870000000  8.314251e-001  3.594826e-001 
1875000000  8.334104e-001  3.492000e-001 
1880000000  8.350069e-001  3.412899e-001 
1885000000  8.373525e-001  3.326728e-001 
1890000000  8.395706e-001  3.235506e-001 
1895000000  8.409944e-001  3.145074e-001 
1900000000  8.422739e-001  3.062103e-001 
1905000000  8.437400e-001  2.976153e-001 
1910000000  8.452220e-001  2.893284e-001 
1915000000  8.472367e-001  2.815172e-001 
1920000000  8.497391e-001  2.731140e-001 
1925000000  8.526160e-001  2.634162e-001 
1930000000  8.539498e-001  2.551450e-001 
1935000000  8.570333e-001  2.446749e-001 
1940000000  8.587439e-001  2.356232e-001 
1945000000  8.608868e-001  2.256429e-001 
1950000000  8.627932e-001  2.150602e-001 
1955000000  8.639796e-001  2.045886e-001 
1960000000  8.652240e-001  1.938754e-001 
1965000000  8.664041e-001  1.835030e-001 
1970000000  8.678011e-001  1.728516e-001 
1975000000  8.692014e-001  1.619362e-001 
1980000000  8.705251e-001  1.507401e-001 
1985000000  8.720897e-001  1.384352e-001 
1990000000  8.720741e-001  1.259718e-001 
1995000000  8.715024e-001  1.136777e-001 
2000000000  8.709316e-001  1.021962e-001 
2005000000  8.710760e-001  9.020247e-002 
2010000000  8.703969e-001  7.765134e-002 
2015000000  8.693783e-001  6.538343e-002 
2020000000  8.686969e-001  5.321556e-002 
2025000000  8.675180e-001  4.019495e-002 
2030000000  8.663077e-001  2.747630e-002 
2035000000  8.653948e-001  1.442290e-002 
2040000000  8.640451e-001  4.068178e-004 
2045000000  8.624822e-001  -1.411334e-002 
2050000000  8.598196e-001  -2.892990e-002 
2055000000  8.563914e-001  -4.361097e-002 
2060000000  8.532941e-001  -5.800523e-002 
2065000000  8.504212e-001  -7.384017e-002 
2070000000  8.460500e-001  -9.036686e-002 
2075000000  8.405955e-001  -1.069234e-001 
2080000000  8.342983e-001  -1.234585e-001 
2085000000  8.272550e-001  -1.400269e-001 
2090000000  8.196890e-001  -1.568611e-001 
2095000000  8.108451e-001  -1.745653e-001 
2100000000  8.008267e-001  -1.921928e-001 
2105000000  7.892334e-001  -2.094361e-001 
2110000000  7.777103e-001  -2.262182e-001 
2115000000  7.648358e-001  -2.453450e-001 
2120000000  7.493072e-001  -2.642443e-001 
2125000000  7.321920e-001  -2.819671e-001 
2130000000  7.140726e-001  -2.999366e-001 
2135000000  6.940420e-001  -3.181957e-001 
2140000000  6.716877e-001  -3.370540e-001 
2145000000  6.459054e-001  -3.554585e-001 
2150000000  6.177855e-001  -3.731936e-001 
2155000000  5.852309e-001  -3.911257e-001 
2160000000  5.471520e-001  -4.069094e-001 
2165000000  5.043403e-001  -4.185895e-001 
2170000000  4.576371e-001  -4.262476e-001 
2175000000  4.057737e-001  -4.284976e-001 
2180000000  3.497418e-001  -4.236131e-001 
2185000000  2.905295e-001  -4.093728e-001 
2190000000  2.290833e-001  -3.847472e-001 
2195000000  1.671752e-001  -3.467539e-001 
2200000000  1.109335e-001  -2.921668e-001 
2205000000  6.631735e-002  -2.240776e-001 
2210000000  3.646237e-002  -1.455025e-001 
2215000000  2.581476e-002  -6.105633e-002 
2220000000  3.480551e-002  2.149447e-002 
2225000000  6.033142e-002  9.740569e-002 
2230000000  9.886848e-002  1.638676e-001 
2235000000  1.485747e-001  2.191216e-001 
2240000000  2.061549e-001  2.582549e-001 
2245000000  2.618819e-001  2.828738e-001 
2250000000  3.159827e-001  2.980751e-001 
2255000000  3.675308e-001  3.051217e-001 
2260000000  4.168162e-001  3.045786e-001 
2265000000  4.609407e-001  2.966447e-001 
2270000000  5.001159e-001  2.842861e-001 
2275000000  5.337571e-001  2.700739e-001 
2280000000  5.642393e-001  2.536066e-001 
2285000000  5.905480e-001  2.352836e-001 
2290000000  6.137814e-001  2.169624e-001 
2295000000  6.344557e-001  1.974711e-001 
2300000000  6.526913e-001  1.768966e-001 
2305000000  6.677023e-001  1.567829e-001 
2310000000  6.808447e-001  1.367402e-001 
2315000000  6.920354e-001  1.161708e-001 
2320000000  7.016684e-001  9.672577e-002 
2325000000  7.099248e-001  7.655716e-002 
2330000000  7.162369e-001  5.679369e-002 
2335000000  7.216508e-001  3.759979e-002 
2340000000  7.254633e-001  1.773986e-002 
2345000000  7.267581e-001  -1.011760e-003 
2350000000  7.285416e-001  -1.784121e-002 
2355000000  7.298195e-001  -3.607012e-002 
2360000000  7.293472e-001  -5.367503e-002 
2365000000  7.277380e-001  -7.039671e-002 
2370000000  7.262300e-001  -8.565022e-002 
2375000000  7.247671e-001  -1.015870e-001 
2380000000  7.227382e-001  -1.181144e-001 
2385000000  7.196785e-001  -1.343044e-001 
2390000000  7.162870e-001  -1.505728e-001 
2395000000  7.117214e-001  -1.676882e-001 
2400000000  7.047179e-001  -1.840635e-001 
2405000000  6.981328e-001  -1.992468e-001 
2410000000  6.908377e-001  -2.149954e-001 
2415000000  6.830283e-001  -2.294696e-001 
2420000000  6.752109e-001  -2.449376e-001 
2425000000  6.667273e-001  -2.610951e-001 
2430000000  6.558133e-001  -2.781397e-001 
2435000000  6.432157e-001  -2.943507e-001 
2440000000  6.290128e-001  -3.108549e-001 
2445000000  6.120002e-001  -3.258257e-001 
2450000000  5.950851e-001  -3.392886e-001 
2455000000  5.772970e-001  -3.536829e-001 
2460000000  5.558859e-001  -3.685897e-001 
2465000000  5.310554e-001  -3.818311e-001 
2470000000  5.023178e-001  -3.928038e-001 
2475000000  4.703679e-001  -4.001122e-001 
2480000000  4.346749e-001  -4.029262e-001 
2485000000  3.970180e-001  -3.995173e-001 
2490000000  3.577369e-001  -3.890572e-001 
2495000000  3.185201e-001  -3.693878e-001 
2500000000  2.828784e-001  -3.389424e-001 
2505000000  2.552572e-001  -2.990711e-001 
2510000000  2.397187e-001  -2.522292e-001 
2515000000  2.390231e-001  -2.039570e-001 
2520000000  2.512837e-001  -1.605822e-001 
2525000000  2.744319e-001  -1.246171e-001 
2530000000  3.032571e-001  -1.004136e-001 
2535000000  3.336424e-001  -8.486614e-002 
2540000000  3.634373e-001  -7.951551e-002 
2545000000  3.902144e-001  -8.128244e-002 
2550000000  4.121561e-001  -8.825998e-002 
2555000000  4.303225e-001  -9.846981e-002 
2560000000  4.443552e-001  -1.104115e-001 
2565000000  4.540789e-001  -1.240438e-001 
2570000000  4.612339e-001  -1.377767e-001 
2575000000  4.649844e-001  -1.519237e-001 
2580000000  4.653788e-001  -1.646331e-001 
2585000000  4.659138e-001  -1.756279e-001 
2590000000  4.653517e-001  -1.887417e-001 
2595000000  4.615690e-001  -2.007996e-001 
2600000000  4.575540e-001  -2.121603e-001 
2605000000  4.507809e-001  -2.251964e-001 
2610000000  4.400664e-001  -2.356352e-001 
2615000000  4.285781e-001  -2.416814e-001 
2620000000  4.198357e-001  -2.475213e-001 
2625000000  4.089127e-001  -2.536620e-001 
2630000000  3.967810e-001  -2.568572e-001 
2635000000  3.858753e-001  -2.591917e-001 
2640000000  3.741257e-001  -2.604638e-001 
2645000000  3.641810e-001  -2.596507e-001 
2650000000  3.547020e-001  -2.601720e-001 
2655000000  3.455323e-001  -2.599825e-001 
2660000000  3.357064e-001  -2.613151e-001 
2665000000  3.234033e-001  -2.613273e-001 
2670000000  3.104461e-001  -2.587289e-001 
2675000000  2.993401e-001  -2.538627e-001 
2680000000  2.886329e-001  -2.493052e-001 
2685000000  2.787233e-001  -2.429328e-001 
2690000000  2.707568e-001  -2.373372e-001 
2695000000  2.621709e-001  -2.315546e-001 
2700000000  2.537439e-001  -2.268014e-001 
2705000000  2.441597e-001  -2.204998e-001 
2710000000  2.346058e-001  -2.125058e-001 
2715000000  2.278947e-001  -2.032797e-001 
2720000000  2.216446e-001  -1.959620e-001 
2725000000  2.135097e-001  -1.895855e-001 
2730000000  2.036997e-001  -1.801427e-001 
2735000000  1.956209e-001  -1.686299e-001 
2740000000  1.882330e-001  -1.561408e-001 
2745000000  1.819831e-001  -1.408233e-001 
2750000000  1.797998e-001  -1.259413e-001 
2755000000  1.779568e-001  -1.116796e-001 
2760000000  1.783815e-001  -9.777876e-002 
2765000000  1.785021e-001  -8.571208e-002 
2770000000  1.773940e-001  -7.328435e-002 
2775000000  1.762380e-001  -5.920032e-002 
2780000000  1.778987e-001  -4.356611e-002 
2785000000  1.802900e-001  -2.912959e-002 
2790000000  1.831009e-001  -1.394758e-002 
2795000000  1.880343e-001  1.391417e-003 
2800000000  1.937740e-001  1.644094e-002 
2805000000  2.007432e-001  2.928622e-002 
2810000000  2.058032e-001  4.319147e-002 
2815000000  2.119564e-001  5.777459e-002 
2820000000  2.191760e-001  7.454284e-002 
2825000000  2.302775e-001  9.151359e-002 
2830000000  2.429562e-001  1.060931e-001 
2835000000  2.558188e-001  1.196639e-001 
2840000000  2.696062e-001  1.346313e-001 
2845000000  2.861766e-001  1.484581e-001 
2850000000  3.032536e-001  1.601565e-001 
2855000000  3.213558e-001  1.711451e-001 
2860000000  3.408350e-001  1.808375e-001 
2865000000  3.595900e-001  1.901019e-001 
2870000000  3.815722e-001  1.988628e-001 
2875000000  4.037579e-001  2.039454e-001 
2880000000  4.263466e-001  2.094915e-001 
2885000000  4.492510e-001  2.124356e-001 
2890000000  4.728141e-001  2.152996e-001 
2895000000  4.973323e-001  2.153452e-001 
2900000000  5.210514e-001  2.125848e-001 
2905000000  5.444381e-001  2.103873e-001 
2910000000  5.676623e-001  2.058209e-001 
2915000000  5.915670e-001  2.005044e-001 
2920000000  6.141474e-001  1.924067e-001 
2925000000  6.365007e-001  1.842661e-001 
2930000000  6.584685e-001  1.737884e-001 
2935000000  6.795843e-001  1.627221e-001 
2940000000  7.007241e-001  1.510525e-001 
2945000000  7.212572e-001  1.370064e-001 
2950000000  7.412350e-001  1.216167e-001 
2955000000  7.596604e-001  1.048635e-001 
2960000000  7.771919e-001  8.695797e-002 
2965000000  7.930961e-001  6.749716e-002 
2970000000  8.077539e-001  4.922421e-002 
2975000000  8.224850e-001  3.038168e-002 
2980000000  8.358879e-001  1.101068e-002 
2985000000  8.491619e-001  -9.948791e-003 
2990000000  8.605461e-001  -3.228915e-002 
2995000000  8.694352e-001  -5.521538e-002 
3000000000  8.778631e-001  -7.804573e-002 
3005000000  8.849553e-001  -1.015616e-001 
3010000000  8.908903e-001  -1.248004e-001 
3015000000  8.951792e-001  -1.486606e-001 
3020000000  8.988342e-001  -1.705102e-001 
3025000000  9.020941e-001  -1.933567e-001 
3030000000  9.038718e-001  -2.160065e-001 
3035000000  9.054546e-001  -2.388306e-001 
3040000000  9.047523e-001  -2.615909e-001 
3045000000  9.029573e-001  -2.841379e-001 
3050000000  8.998575e-001  -3.062488e-001 
3055000000  8.960711e-001  -3.279960e-001 
3060000000  8.919955e-001  -3.474863e-001 
3065000000  8.878466e-001  -3.674722e-001 
3070000000  8.833681e-001  -3.874049e-001 
3075000000  8.778772e-001  -4.069076e-001 
3080000000  8.721945e-001  -4.262395e-001 
3085000000  8.648570e-001  -4.444390e-001 
3090000000  8.568844e-001  -4.620955e-001 
3095000000  8.473459e-001  -4.775486e-001 
3100000000  8.383689e-001  -4.939887e-001 
3105000000  8.294607e-001  -5.101436e-001 
3110000000  8.206754e-001  -5.264355e-001 
3115000000  8.121889e-001  -5.425674e-001 
3120000000  8.024264e-001  -5.569761e-001 
3125000000  7.920729e-001  -5.709283e-001 
3130000000  7.811136e-001  -5.829577e-001 
3135000000  7.701824e-001  -5.955158e-001 
3140000000  7.586616e-001  -6.065347e-001 
3145000000  7.471466e-001  -6.189241e-001 
3150000000  7.362793e-001  -6.291903e-001 
3155000000  7.253537e-001  -6.407231e-001 
3160000000  7.145674e-001  -6.524972e-001 
3165000000  7.030402e-001  -6.630693e-001 
3170000000  6.914112e-001  -6.738010e-001 
3175000000  6.796052e-001  -6.835139e-001 
3180000000  6.677300e-001  -6.928250e-001 
3185000000  6.554484e-001  -7.011545e-001 
3190000000  6.433421e-001  -7.092187e-001 
3195000000  6.310522e-001  -7.167186e-001 
3200000000  6.188819e-001  -7.240972e-001 
3205000000  6.062114e-001  -7.315998e-001 
3210000000  5.944793e-001  -7.383234e-001 
3215000000  5.825628e-001  -7.427160e-001 
3220000000  5.705078e-001  -7.485978e-001 
3225000000  5.584669e-001  -7.553830e-001 
3230000000  5.460379e-001  -7.624831e-001 
3235000000  5.335077e-001  -7.695395e-001 
3240000000  5.212924e-001  -7.754166e-001 
3245000000  5.093388e-001  -7.809626e-001 
3250000000  4.972030e-001  -7.859685e-001 
3255000000  4.850220e-001  -7.913733e-001 
3260000000  4.729385e-001  -7.967461e-001 
3265000000  4.607384e-001  -8.016883e-001 
3270000000  4.485113e-001  -8.064346e-001 
3275000000  4.365722e-001  -8.112078e-001 
3280000000  4.245649e-001  -8.157024e-001 
3285000000  4.126939e-001  -8.199320e-001 
3290000000  4.007890e-001  -8.241434e-001 
3295000000  3.889354e-001  -8.284186e-001 
3300000000  3.768002e-001  -8.327511e-001 
3305000000  3.650324e-001  -8.363490e-001 
3310000000  3.532164e-001  -8.401547e-001 
3315000000  3.410582e-001  -8.434685e-001 
3320000000  3.291989e-001  -8.464161e-001 
3325000000  3.176881e-001  -8.494490e-001 
3330000000  3.059829e-001  -8.525189e-001 
3335000000  2.944090e-001  -8.552476e-001 
3340000000  2.827747e-001  -8.582197e-001 
3345000000  2.706271e-001  -8.612708e-001 
3350000000  2.593647e-001  -8.634799e-001 
3355000000  2.472054e-001  -8.663067e-001 
3360000000  2.349849e-001  -8.686094e-001 
3365000000  2.225741e-001  -8.706580e-001 
3370000000  2.099737e-001  -8.722680e-001 
3375000000  1.975892e-001  -8.735618e-001 
3380000000  1.853535e-001  -8.747709e-001 
3385000000  1.731896e-001  -8.761321e-001 
3390000000  1.609607e-001  -8.777221e-001 
3395000000  1.476232e-001  -8.797594e-001 
3400000000  1.349749e-001  -8.814601e-001 
3405000000  1.210467e-001  -8.826621e-001 
3410000000  1.067121e-001  -8.834636e-001 
3415000000  9.222788e-002  -8.840233e-001 
3420000000  7.764187e-002  -8.841543e-001 
3425000000  6.266947e-002  -8.843331e-001 
3430000000  4.720014e-002  -8.837976e-001 
3435000000  3.131235e-002  -8.830296e-001 
3440000000  1.590617e-002  -8.810153e-001 
3445000000  4.423348e-005  -8.791513e-001 
3450000000  -1.543589e-002  -8.772916e-001 
3455000000  -3.107650e-002  -8.758157e-001 
3460000000  -4.772987e-002  -8.741590e-001 
3465000000  -6.470030e-002  -8.721595e-001 
3470000000  -8.258803e-002  -8.700494e-001 
3475000000  -1.013594e-001  -8.676637e-001 
3480000000  -1.210648e-001  -8.637123e-001 
3485000000  -1.408085e-001  -8.586577e-001 
3490000000  -1.603018e-001  -8.525846e-001 
3495000000  -1.798342e-001  -8.461850e-001 
3500000000  -1.999180e-001  -8.390766e-001 
3505000000  -2.197528e-001  -8.305250e-001 
3510000000  -2.397376e-001  -8.215960e-001 
3515000000  -2.588456e-001  -8.121336e-001 
3520000000  -2.780502e-001  -8.021089e-001 
3525000000  -2.984047e-001  -7.912622e-001 
3530000000  -3.184283e-001  -7.794684e-001 
3535000000  -3.393988e-001  -7.673545e-001 
3540000000  -3.607143e-001  -7.539278e-001 
3545000000  -3.814968e-001  -7.385033e-001 
3550000000  -4.028306e-001  -7.215659e-001 
3555000000  -4.242398e-001  -7.017986e-001 
3560000000  -4.441359e-001  -6.803756e-001 
3565000000  -4.627920e-001  -6.578737e-001 
3570000000  -4.808346e-001  -6.340372e-001 
3575000000  -4.982495e-001  -6.087181e-001 
3580000000  -5.145761e-001  -5.816256e-001 
3585000000  -5.284317e-001  -5.521989e-001 
3590000000  -5.402150e-001  -5.231968e-001 
3595000000  -5.508934e-001  -4.939565e-001 
3600000000  -5.615283e-001  -4.634967e-001 
3605000000  -5.702324e-001  -4.326793e-001 
3610000000  -5.782130e-001  -3.999154e-001 
3615000000  -5.851291e-001  -3.653406e-001 
3620000000  -5.899037e-001  -3.300198e-001 
3625000000  -5.932840e-001  -2.930540e-001 
3630000000  -5.947100e-001  -2.538455e-001 
3635000000  -5.924861e-001  -2.134173e-001 
3640000000  -5.879826e-001  -1.731410e-001 
3645000000  -5.812173e-001  -1.320789e-001 
3650000000  -5.715424e-001  -8.966601e-002 
3655000000  -5.586560e-001  -4.701459e-002 
3660000000  -5.430717e-001  -2.340912e-003 
3665000000  -5.213068e-001  4.305090e-002 
3670000000  -4.943113e-001  8.678070e-002 
3675000000  -4.622399e-001  1.285242e-001 
3680000000  -4.260219e-001  1.665818e-001 
3685000000  -3.864170e-001  2.023668e-001 
3690000000  -3.423873e-001  2.344598e-001 
3695000000  -2.945054e-001  2.615533e-001 
3700000000  -2.440926e-001  2.831137e-001 
3705000000  -1.930397e-001  2.990976e-001 
3710000000  -1.404012e-001  3.111808e-001 
3715000000  -8.655360e-002  3.164886e-001 
3720000000  -3.466118e-002  3.164231e-001 
3725000000  1.693141e-002  3.119997e-001 
3730000000  6.753550e-002  3.022739e-001 
3735000000  1.150731e-001  2.877944e-001 
3740000000  1.605842e-001  2.686582e-001 
3745000000  2.024165e-001  2.451863e-001 
3750000000  2.404172e-001  2.180803e-001 
3755000000  2.741219e-001  1.876879e-001 
3760000000  3.024698e-001  1.562608e-001 
3765000000  3.272628e-001  1.227801e-001 
3770000000  3.471598e-001  8.769123e-002 
3775000000  3.613918e-001  5.254113e-002 
3780000000  3.711058e-001  1.830955e-002 
3785000000  3.767390e-001  -1.389925e-002 
3790000000  3.790682e-001  -4.501132e-002 
3795000000  3.782905e-001  -7.480405e-002 
3800000000  3.738041e-001  -1.017748e-001 
3805000000  3.652716e-001  -1.263522e-001 
3810000000  3.539459e-001  -1.459545e-001 
3815000000  3.419196e-001  -1.602521e-001 
3820000000  3.300601e-001  -1.704907e-001 
3825000000  3.195979e-001  -1.763649e-001 
3830000000  3.103782e-001  -1.789775e-001 
3835000000  3.035731e-001  -1.768894e-001 
3840000000  3.017346e-001  -1.725390e-001 
3845000000  3.032194e-001  -1.686720e-001 
3850000000  3.086739e-001  -1.629515e-001 
3855000000  3.181751e-001  -1.591035e-001 
3860000000  3.305194e-001  -1.570335e-001 
3865000000  3.453160e-001  -1.570989e-001 
3870000000  3.622952e-001  -1.598683e-001 
3875000000  3.806106e-001  -1.663685e-001 
3880000000  3.990453e-001  -1.758960e-001 
3885000000  4.174702e-001  -1.886842e-001 
3890000000  4.344129e-001  -2.048699e-001 
3895000000  4.497048e-001  -2.231224e-001 
3900000000  4.631972e-001  -2.437941e-001 
3905000000  4.747497e-001  -2.661226e-001 
3910000000  4.833824e-001  -2.890869e-001 
3915000000  4.895644e-001  -3.127623e-001 
3920000000  4.941680e-001  -3.362028e-001 
3925000000  4.970787e-001  -3.599089e-001 
3930000000  4.979468e-001  -3.835600e-001 
3935000000  4.972744e-001  -4.066980e-001 
3940000000  4.945208e-001  -4.297418e-001 
3945000000  4.910145e-001  -4.517104e-001 
3950000000  4.867342e-001  -4.723148e-001 
3955000000  4.812865e-001  -4.937627e-001 
3960000000  4.746573e-001  -5.149127e-001 
3965000000  4.659021e-001  -5.354042e-001 
3970000000  4.570663e-001  -5.540648e-001 
3975000000  4.470355e-001  -5.722446e-001 
3980000000  4.370544e-001  -5.897554e-001 
3985000000  4.259171e-001  -6.067705e-001 
3990000000  4.145147e-001  -6.230085e-001 
3995000000  4.025575e-001  -6.386235e-001 
4000000000  3.900492e-001  -6.536710e-001 
4005000000  3.773551e-001  -6.678511e-001 
4010000000  3.635914e-001  -6.818261e-001 
4015000000  3.497625e-001  -6.948804e-001 
4020000000  3.357700e-001  -7.072374e-001 
4025000000  3.209541e-001  -7.190922e-001 
4030000000  3.067690e-001  -7.296665e-001 
4035000000  2.922829e-001  -7.396544e-001 
4040000000  2.774684e-001  -7.495123e-001 
4045000000  2.618221e-001  -7.594067e-001 
4050000000  2.468143e-001  -7.677734e-001 
4055000000  2.307876e-001  -7.765972e-001 
4060000000  2.147108e-001  -7.841963e-001 
4065000000  1.985361e-001  -7.913010e-001 
4070000000  1.821523e-001  -7.979972e-001 
4075000000  1.654973e-001  -8.036267e-001 
4080000000  1.495875e-001  -8.084675e-001 
4085000000  1.326745e-001  -8.136264e-001 
4090000000  1.160319e-001  -8.180254e-001 
4095000000  9.951853e-002  -8.215767e-001 
4100000000  8.175182e-002  -8.251552e-001 
4105000000  6.365719e-002  -8.277094e-001 
4110000000  4.672627e-002  -8.292167e-001 
4115000000  2.936774e-002  -8.302108e-001 
4120000000  1.189366e-002  -8.307152e-001 
4125000000  -5.196785e-003  -8.305639e-001 
4130000000  -2.351412e-002  -8.300622e-001 
4135000000  -4.145415e-002  -8.287665e-001 
4140000000  -5.948273e-002  -8.266396e-001 
4145000000  -7.732993e-002  -8.235779e-001 
4150000000  -9.578835e-002  -8.199269e-001 
4155000000  -1.141257e-001  -8.156767e-001 
4160000000  -1.324526e-001  -8.106540e-001 
4165000000  -1.514830e-001  -8.046011e-001 
4170000000  -1.692881e-001  -7.976326e-001 
4175000000  -1.873187e-001  -7.896892e-001 
4180000000  -2.062861e-001  -7.805516e-001 
4185000000  -2.250914e-001  -7.698849e-001 
4190000000  -2.424445e-001  -7.580761e-001 
4195000000  -2.599160e-001  -7.450545e-001 
4200000000  -2.763953e-001  -7.306921e-001 
4205000000  -2.919501e-001  -7.153686e-001 
4210000000  -3.069475e-001  -6.986389e-001 
4215000000  -3.223896e-001  -6.804227e-001 
4220000000  -3.358828e-001  -6.604000e-001 
4225000000  -3.485447e-001  -6.388101e-001 
4230000000  -3.583104e-001  -6.161067e-001 
4235000000  -3.667282e-001  -5.918373e-001 
4240000000  -3.732409e-001  -5.664017e-001 
4245000000  -3.779272e-001  -5.396445e-001 
4250000000  -3.783264e-001  -5.119472e-001 
4255000000  -3.765264e-001  -4.838805e-001 
4260000000  -3.717709e-001  -4.552505e-001 
4265000000  -3.638516e-001  -4.263477e-001 
4270000000  -3.509050e-001  -3.985708e-001 
4275000000  -3.353637e-001  -3.714079e-001 
4280000000  -3.153169e-001  -3.455291e-001 
4285000000  -2.911437e-001  -3.216384e-001 
4290000000  -2.624785e-001  -3.013749e-001 
4295000000  -2.313220e-001  -2.849555e-001 
4300000000  -1.956001e-001  -2.730328e-001 
4305000000  -1.578221e-001  -2.678911e-001 
4310000000  -1.195205e-001  -2.697712e-001 
4315000000  -8.289427e-002  -2.780341e-001 
4320000000  -4.846872e-002  -2.923299e-001 
4325000000  -1.826136e-002  -3.119223e-001 
4330000000  7.619489e-003  -3.346844e-001 
4335000000  2.961160e-002  -3.607391e-001 
4340000000  4.663493e-002  -3.888196e-001 
4345000000  5.961186e-002  -4.188567e-001 
4350000000  6.766798e-002  -4.494200e-001 
4355000000  7.079356e-002  -4.799615e-001 
4360000000  6.894623e-002  -5.097960e-001 
4365000000  6.333539e-002  -5.377302e-001 
4370000000  5.497178e-002  -5.630856e-001 
4375000000  4.442543e-002  -5.864417e-001 
4380000000  3.157879e-002  -6.081340e-001 
4385000000  1.784526e-002  -6.277857e-001 
4390000000  1.972329e-003  -6.459836e-001 
4395000000  -1.534456e-002  -6.620739e-001 
4400000000  -3.376713e-002  -6.761473e-001 
4405000000  -5.297888e-002  -6.881368e-001 
4410000000  -7.293020e-002  -6.980023e-001 
4415000000  -9.205215e-002  -7.057397e-001 
4420000000  -1.114849e-001  -7.125017e-001 
4425000000  -1.320664e-001  -7.185130e-001 
4430000000  -1.513672e-001  -7.229184e-001 
4435000000  -1.708975e-001  -7.261065e-001 
4440000000  -1.912246e-001  -7.279366e-001 
4445000000  -2.113460e-001  -7.286857e-001 
4450000000  -2.309661e-001  -7.281649e-001 
4455000000  -2.496596e-001  -7.266645e-001 
4460000000  -2.678207e-001  -7.249250e-001 
4465000000  -2.861180e-001  -7.218567e-001 
4470000000  -3.033857e-001  -7.183545e-001 
4475000000  -3.215370e-001  -7.136245e-001 
4480000000  -3.378865e-001  -7.081690e-001 
4485000000  -3.543764e-001  -7.021047e-001 
4490000000  -3.716064e-001  -6.945492e-001 
4495000000  -3.869417e-001  -6.873080e-001 
4500000000  -4.007523e-001  -6.796500e-001 
4505000000  -4.147065e-001  -6.705955e-001 
4510000000  -4.296837e-001  -6.609918e-001 
4515000000  -4.429162e-001  -6.515546e-001 
4520000000  -4.556011e-001  -6.408009e-001 
4525000000  -4.680113e-001  -6.293399e-001 
4530000000  -4.796802e-001  -6.172143e-001 
4535000000  -4.910147e-001  -6.040128e-001 
4540000000  -5.007581e-001  -5.905165e-001 
4545000000  -5.094972e-001  -5.771356e-001 
4550000000  -5.189692e-001  -5.625525e-001 
4555000000  -5.273575e-001  -5.472725e-001 
4560000000  -5.344619e-001  -5.316610e-001 
4565000000  -5.418801e-001  -5.148772e-001 
4570000000  -5.479618e-001  -4.971389e-001 
4575000000  -5.525054e-001  -4.787835e-001 
4580000000  -5.562990e-001  -4.596667e-001 
4585000000  -5.592970e-001  -4.401836e-001 
4590000000  -5.612536e-001  -4.195814e-001 
4595000000  -5.616892e-001  -3.974114e-001 
4600000000  -5.602481e-001  -3.757101e-001 
4605000000  -5.570196e-001  -3.537910e-001 
4610000000  -5.527307e-001  -3.313614e-001 
4615000000  -5.460107e-001  -3.080341e-001 
4620000000  -5.368257e-001  -2.862029e-001 
4625000000  -5.265152e-001  -2.641318e-001 
4630000000  -5.143431e-001  -2.428553e-001 
4635000000  -4.998731e-001  -2.223426e-001 
4640000000  -4.830711e-001  -2.031164e-001 
4645000000  -4.641707e-001  -1.856720e-001 
4650000000  -4.441300e-001  -1.702526e-001 
4655000000  -4.230576e-001  -1.569542e-001 
4660000000  -4.008350e-001  -1.456246e-001 
4665000000  -3.771916e-001  -1.367000e-001 
4670000000  -3.530163e-001  -1.303283e-001 
4675000000  -3.280006e-001  -1.275374e-001 
4680000000  -3.041097e-001  -1.265399e-001 
4685000000  -2.802183e-001  -1.279565e-001 
4690000000  -2.559705e-001  -1.320802e-001 
4695000000  -2.327151e-001  -1.387639e-001 
4700000000  -2.096112e-001  -1.484406e-001 
4705000000  -1.875341e-001  -1.611586e-001 
4710000000  -1.677836e-001  -1.770875e-001 
4715000000  -1.500718e-001  -1.951582e-001 
4720000000  -1.346905e-001  -2.157294e-001 
4725000000  -1.217063e-001  -2.384782e-001 
4730000000  -1.119819e-001  -2.637810e-001 
4735000000  -1.066080e-001  -2.901851e-001 
4740000000  -1.052629e-001  -3.171932e-001 
4745000000  -1.075740e-001  -3.439681e-001 
4750000000  -1.139341e-001  -3.695534e-001 
4755000000  -1.237212e-001  -3.934663e-001 
4760000000  -1.359203e-001  -4.155290e-001 
4765000000  -1.506773e-001  -4.359992e-001 
4770000000  -1.679938e-001  -4.540939e-001 
4775000000  -1.867258e-001  -4.694445e-001 
4780000000  -2.068623e-001  -4.824235e-001 
4785000000  -2.284182e-001  -4.925071e-001 
4790000000  -2.500032e-001  -4.998160e-001 
4795000000  -2.729396e-001  -5.040812e-001 
4800000000  -2.949670e-001  -5.058912e-001 
4805000000  -3.164480e-001  -5.050825e-001 
4810000000  -3.370774e-001  -5.024776e-001 
4815000000  -3.579465e-001  -4.977787e-001 
4820000000  -3.778386e-001  -4.909061e-001 
4825000000  -3.967782e-001  -4.821287e-001 
4830000000  -4.143557e-001  -4.709564e-001 
4835000000  -4.302664e-001  -4.584029e-001 
4840000000  -4.449525e-001  -4.448317e-001 
4845000000  -4.581085e-001  -4.301880e-001 
4850000000  -4.703914e-001  -4.141343e-001 
4855000000  -4.815972e-001  -3.961822e-001 
4860000000  -4.907368e-001  -3.774424e-001 
4865000000  -4.981682e-001  -3.579325e-001 
4870000000  -5.035042e-001  -3.367430e-001 
4875000000  -5.064784e-001  -3.145334e-001 
4880000000  -5.063808e-001  -2.930784e-001 
4885000000  -5.051565e-001  -2.704524e-001 
4890000000  -5.010183e-001  -2.485639e-001 
4895000000  -4.947260e-001  -2.265261e-001 
4900000000  -4.858619e-001  -2.042438e-001 
4905000000  -4.741159e-001  -1.827227e-001 
4910000000  -4.600645e-001  -1.620567e-001 
4915000000  -4.427915e-001  -1.421620e-001 
4920000000  -4.228392e-001  -1.242932e-001 
4925000000  -4.003218e-001  -1.082959e-001 
4930000000  -3.748499e-001  -9.443069e-002 
4935000000  -3.470405e-001  -8.388451e-002 
4940000000  -3.177002e-001  -7.640514e-002 
4945000000  -2.865228e-001  -7.238140e-002 
4950000000  -2.539614e-001  -7.256150e-002 
4955000000  -2.207469e-001  -7.677808e-002 
4960000000  -1.871552e-001  -8.584338e-002 
4965000000  -1.545582e-001  -1.002194e-001 
4970000000  -1.243918e-001  -1.190546e-001 
4975000000  -9.704502e-002  -1.419490e-001 
4980000000  -7.317934e-002  -1.678115e-001 
4985000000  -5.272067e-002  -1.960272e-001 
4990000000  -3.585094e-002  -2.266769e-001 
4995000000  -2.286302e-002  -2.588778e-001 
5000000000  -1.468122e-002  -2.920552e-001 
5005000000  -1.058345e-002  -3.253902e-001 
5010000000  -1.104552e-002  -3.578510e-001 
5015000000  -1.528515e-002  -3.889431e-001 
5020000000  -2.261945e-002  -4.178659e-001 
5025000000  -3.277054e-002  -4.447983e-001 
5030000000  -4.525400e-002  -4.693171e-001 
5035000000  -5.904486e-002  -4.909444e-001 
5040000000  -7.314327e-002  -5.105742e-001 
5045000000  -8.888303e-002  -5.285924e-001 
5050000000  -1.049266e-001  -5.447685e-001 
5055000000  -1.214720e-001  -5.591727e-001 
5060000000  -1.383659e-001  -5.721716e-001 
5065000000  -1.545294e-001  -5.839734e-001 
5070000000  -1.712968e-001  -5.953077e-001 
5075000000  -1.888446e-001  -6.061871e-001 
5080000000  -2.066323e-001  -6.158856e-001 
5085000000  -2.262536e-001  -6.246754e-001 
5090000000  -2.461050e-001  -6.322618e-001 
5095000000  -2.666421e-001  -6.385131e-001 
5100000000  -2.872352e-001  -6.428775e-001 
5105000000  -3.081883e-001  -6.461729e-001 
5110000000  -3.291447e-001  -6.482714e-001 
5115000000  -3.499819e-001  -6.488579e-001 
5120000000  -3.707599e-001  -6.485058e-001 
5125000000  -3.906109e-001  -6.469811e-001 
5130000000  -4.113247e-001  -6.442024e-001 
5135000000  -4.310640e-001  -6.403427e-001 
5140000000  -4.507737e-001  -6.355802e-001 
5145000000  -4.689145e-001  -6.302193e-001 
5150000000  -4.871132e-001  -6.238647e-001 
5155000000  -5.044870e-001  -6.169333e-001 
5160000000  -5.210730e-001  -6.091505e-001 
5165000000  -5.370327e-001  -6.010162e-001 
5170000000  -5.526035e-001  -5.921106e-001 
5175000000  -5.672390e-001  -5.831550e-001 
5180000000  -5.807189e-001  -5.742915e-001 
5185000000  -5.944467e-001  -5.644986e-001 
5190000000  -6.075342e-001  -5.544663e-001 
5195000000  -6.198342e-001  -5.440831e-001 
5200000000  -6.317376e-001  -5.332193e-001 
5205000000  -6.429366e-001  -5.218342e-001 
5210000000  -6.537215e-001  -5.102584e-001 
5215000000  -6.640378e-001  -4.981428e-001 
5220000000  -6.732445e-001  -4.860185e-001 
5225000000  -6.826158e-001  -4.727343e-001 
5230000000  -6.910899e-001  -4.596319e-001 
5235000000  -6.987067e-001  -4.459199e-001 
5240000000  -7.059616e-001  -4.317528e-001 
5245000000  -7.127029e-001  -4.171243e-001 
5250000000  -7.185609e-001  -4.020909e-001 
5255000000  -7.239917e-001  -3.861980e-001 
5260000000  -7.282869e-001  -3.700872e-001 
5265000000  -7.315085e-001  -3.538153e-001 
5270000000  -7.343883e-001  -3.363340e-001 
5275000000  -7.354811e-001  -3.195204e-001 
5280000000  -7.360643e-001  -3.009422e-001 
5285000000  -7.351782e-001  -2.825323e-001 
5290000000  -7.331851e-001  -2.635732e-001 
5295000000  -7.294776e-001  -2.444293e-001 
5300000000  -7.243871e-001  -2.252011e-001 
5305000000  -7.171236e-001  -2.060977e-001 
5310000000  -7.084128e-001  -1.863574e-001 
5315000000  -6.972234e-001  -1.675623e-001 
5320000000  -6.835330e-001  -1.496745e-001 
5325000000  -6.677684e-001  -1.323255e-001 
5330000000  -6.493384e-001  -1.171081e-001 
5335000000  -6.283560e-001  -1.039749e-001 
5340000000  -6.049715e-001  -9.362536e-002 
5345000000  -5.794246e-001  -8.692918e-002 
5350000000  -5.523787e-001  -8.479015e-002 
5355000000  -5.250317e-001  -8.677280e-002 
5360000000  -4.976601e-001  -9.455565e-002 
5365000000  -4.720412e-001  -1.068778e-001 
5370000000  -4.487220e-001  -1.243905e-001 
5375000000  -4.288125e-001  -1.465615e-001 
5380000000  -4.138213e-001  -1.718843e-001 
5385000000  -4.040654e-001  -2.000546e-001 
5390000000  -3.999426e-001  -2.294527e-001 
5395000000  -4.015027e-001  -2.586816e-001 
5400000000  -4.083501e-001  -2.865514e-001 
5405000000  -4.196201e-001  -3.121122e-001 
5410000000  -4.346299e-001  -3.347912e-001 
5415000000  -4.526033e-001  -3.541806e-001 
5420000000  -4.722173e-001  -3.700277e-001 
5425000000  -4.933020e-001  -3.819368e-001 
5430000000  -5.145895e-001  -3.912208e-001 
5435000000  -5.361437e-001  -3.974795e-001 
5440000000  -5.572631e-001  -4.010970e-001 
5445000000  -5.779476e-001  -4.024633e-001 
5450000000  -5.977194e-001  -4.015077e-001 
5455000000  -6.166591e-001  -3.987184e-001 
5460000000  -6.345732e-001  -3.946434e-001 
5465000000  -6.514944e-001  -3.891304e-001 
5470000000  -6.675026e-001  -3.823053e-001 
5475000000  -6.822664e-001  -3.746757e-001 
5480000000  -6.961980e-001  -3.661417e-001 
5485000000  -7.093851e-001  -3.567343e-001 
5490000000  -7.217093e-001  -3.469618e-001 
5495000000  -7.329958e-001  -3.365771e-001 
5500000000  -7.435766e-001  -3.258599e-001 
5505000000  -7.536756e-001  -3.146527e-001 
5510000000  -7.633851e-001  -3.028638e-001 
5515000000  -7.720481e-001  -2.906624e-001 
5520000000  -7.802705e-001  -2.785451e-001 
5525000000  -7.882429e-001  -2.660070e-001 
5530000000  -7.953392e-001  -2.532514e-001 
5535000000  -8.018684e-001  -2.401991e-001 
5540000000  -8.080555e-001  -2.272018e-001 
5545000000  -8.138377e-001  -2.139178e-001 
5550000000  -8.190821e-001  -2.005934e-001 
5555000000  -8.240746e-001  -1.870878e-001 
5560000000  -8.288305e-001  -1.736511e-001 
5565000000  -8.329459e-001  -1.598914e-001 
5570000000  -8.364876e-001  -1.460824e-001 
5575000000  -8.398450e-001  -1.323354e-001 
5580000000  -8.427177e-001  -1.185999e-001 
5585000000  -8.456901e-001  -1.048079e-001 
5590000000  -8.475395e-001  -9.108647e-002 
5595000000  -8.491775e-001  -7.755873e-002 
5600000000  -8.507109e-001  -6.413039e-002 
5605000000  -8.513795e-001  -5.104274e-002 
5610000000  -8.524349e-001  -3.798614e-002 
5615000000  -8.525929e-001  -2.475298e-002 
5620000000  -8.524736e-001  -1.199281e-002 
5625000000  -8.519968e-001  1.153428e-003 
5630000000  -8.514043e-001  1.333260e-002 
5635000000  -8.501385e-001  2.581532e-002 
5640000000  -8.484794e-001  3.833633e-002 
5645000000  -8.463407e-001  5.082236e-002 
5650000000  -8.433999e-001  6.297141e-002 
5655000000  -8.399451e-001  7.492717e-002 
5660000000  -8.360043e-001  8.621426e-002 
5665000000  -8.316756e-001  9.871151e-002 
5670000000  -8.266741e-001  1.102400e-001 
5675000000  -8.211185e-001  1.210409e-001 
5680000000  -8.154761e-001  1.331652e-001 
5685000000  -8.088338e-001  1.447399e-001 
5690000000  -8.015611e-001  1.560830e-001 
5695000000  -7.935687e-001  1.674018e-001 
5700000000  -7.851808e-001  1.784776e-001 
5705000000  -7.752634e-001  1.899175e-001 
5710000000  -7.646348e-001  2.010121e-001 
5715000000  -7.528645e-001  2.118237e-001 
5720000000  -7.407575e-001  2.213728e-001 
5725000000  -7.275881e-001  2.310981e-001 
5730000000  -7.134647e-001  2.394697e-001 
5735000000  -6.985817e-001  2.484764e-001 
5740000000  -6.828504e-001  2.560511e-001 
5745000000  -6.664914e-001  2.629247e-001 
5750000000  -6.489967e-001  2.689359e-001 
5755000000  -6.311051e-001  2.740368e-001 
5760000000  -6.122630e-001  2.768287e-001 
5765000000  -5.927404e-001  2.799793e-001 
5770000000  -5.733003e-001  2.802742e-001 
5775000000  -5.533377e-001  2.792931e-001 
5780000000  -5.331236e-001  2.763662e-001 
5785000000  -5.132308e-001  2.715189e-001 
5790000000  -4.937670e-001  2.645217e-001 
5795000000  -4.750181e-001  2.552353e-001 
5800000000  -4.573828e-001  2.436855e-001 
5805000000  -4.411767e-001  2.298024e-001 
5810000000  -4.269054e-001  2.136956e-001 
5815000000  -4.152128e-001  1.954129e-001 
5820000000  -4.055857e-001  1.757880e-001 
5825000000  -3.990944e-001  1.544862e-001 
5830000000  -3.963958e-001  1.318751e-001 
5835000000  -3.968918e-001  1.092845e-001 
5840000000  -4.012506e-001  8.672161e-002 
5845000000  -4.089482e-001  6.534401e-002 
5850000000  -4.197289e-001  4.528972e-002 
5855000000  -4.331315e-001  2.715274e-002 
5860000000  -4.488374e-001  1.104499e-002 
5865000000  -4.665968e-001  -2.592294e-003 
5870000000  -4.853427e-001  -1.343972e-002 
5875000000  -5.052063e-001  -2.226712e-002 
5880000000  -5.258874e-001  -2.857174e-002 
5885000000  -5.469265e-001  -3.223755e-002 
5890000000  -5.677923e-001  -3.297093e-002 
5895000000  -5.878187e-001  -3.121638e-002 
5900000000  -6.065235e-001  -2.819891e-002 
5905000000  -6.240615e-001  -2.284181e-002 
5910000000  -6.405151e-001  -1.625107e-002 
5915000000  -6.558014e-001  -9.466789e-003 
5920000000  -6.703048e-001  -1.312949e-003 
5925000000  -6.837196e-001  8.174729e-003 
5930000000  -6.954220e-001  1.843165e-002 
5935000000  -7.058333e-001  2.922848e-002 
5940000000  -7.149451e-001  4.027539e-002 
5945000000  -7.234236e-001  5.141924e-002 
5950000000  -7.308028e-001  6.300583e-002 
5955000000  -7.369490e-001  7.498982e-002 
5960000000  -7.423917e-001  8.679981e-002 
5965000000  -7.471176e-001  9.989974e-002 
5970000000  -7.504894e-001  1.125940e-001 
5975000000  -7.529569e-001  1.252690e-001 
5980000000  -7.546725e-001  1.378873e-001 
5985000000  -7.556309e-001  1.502740e-001 
5990000000  -7.558926e-001  1.628179e-001 
5995000000  -7.550489e-001  1.751022e-001 
6000000000  -7.540267e-001  1.867312e-001 
