!Agilent Technologies,E8364B,MY43040633,A.07.50.37
!Agilent E8364B: A.07.50.37
!Date: Tuesday, December 16, 2025 16:55:32
!Correction: S11(Full 1 Port(1)) 
!S1P File: Measurement: S11:
# Hz S  RI   R 50
1000000000  -1.170679e-001  -6.510251e-001 
1005000000  -1.215476e-001  -6.317484e-001 
1010000000  -1.185618e-001  -6.134696e-001 
1015000000  -1.131160e-001  -6.059790e-001 
1020000000  -1.126577e-001  -5.998639e-001 
1025000000  -1.165489e-001  -5.968372e-001 
1030000000  -1.287910e-001  -5.874431e-001 
1035000000  -1.311864e-001  -5.704447e-001 
1040000000  -1.282301e-001  -5.581625e-001 
1045000000  -1.286705e-001  -5.519781e-001 
1050000000  -1.339454e-001  -5.416449e-001 
1055000000  -1.376461e-001  -5.307390e-001 
1060000000  -1.369615e-001  -5.191956e-001 
1065000000  -1.384101e-001  -5.114214e-001 
1070000000  -1.401765e-001  -5.046718e-001 
1075000000  -1.438831e-001  -4.963113e-001 
1080000000  -1.467677e-001  -4.889109e-001 
1085000000  -1.535470e-001  -4.794478e-001 
1090000000  -1.591226e-001  -4.646734e-001 
1095000000  -1.594482e-001  -4.483518e-001 
1100000000  -1.560421e-001  -4.352615e-001 
1105000000  -1.538325e-001  -4.228393e-001 
1110000000  -1.487417e-001  -4.127399e-001 
1115000000  -1.445741e-001  -4.040805e-001 
1120000000  -1.377826e-001  -3.949023e-001 
1125000000  -1.283782e-001  -3.923799e-001 
1130000000  -1.267003e-001  -3.978298e-001 
1135000000  -1.363198e-001  -3.945347e-001 
1140000000  -1.428682e-001  -3.842910e-001 
1145000000  -1.449553e-001  -3.711987e-001 
1150000000  -1.400649e-001  -3.614975e-001 
1155000000  -1.392703e-001  -3.579811e-001 
1160000000  -1.438569e-001  -3.554134e-001 
1165000000  -1.534457e-001  -3.449644e-001 
1170000000  -1.586688e-001  -3.291736e-001 
1175000000  -1.594809e-001  -3.113963e-001 
1180000000  -1.558966e-001  -2.945901e-001 
1185000000  -1.513322e-001  -2.806524e-001 
1190000000  -1.484739e-001  -2.670856e-001 
1195000000  -1.453519e-001  -2.503307e-001 
1200000000  -1.331767e-001  -2.332681e-001 
1205000000  -1.207504e-001  -2.270060e-001 
1210000000  -1.124733e-001  -2.199023e-001 
1215000000  -1.040627e-001  -2.182067e-001 
1220000000  -1.020434e-001  -2.115327e-001 
1225000000  -9.469859e-002  -2.038927e-001 
1230000000  -8.923697e-002  -1.992981e-001 
1235000000  -8.562290e-002  -1.953431e-001 
1240000000  -8.596292e-002  -1.872199e-001 
1245000000  -8.008692e-002  -1.750541e-001 
1250000000  -7.244493e-002  -1.664341e-001 
1255000000  -6.506476e-002  -1.566546e-001 
1260000000  -5.379792e-002  -1.499275e-001 
1265000000  -4.541783e-002  -1.460278e-001 
1270000000  -4.130393e-002  -1.431227e-001 
1275000000  -3.769565e-002  -1.338892e-001 
1280000000  -2.942779e-002  -1.264844e-001 
1285000000  -2.422865e-002  -1.200265e-001 
1290000000  -1.837021e-002  -1.096962e-001 
1295000000  -6.709141e-003  -9.838858e-002 
1300000000  8.483435e-003  -9.204125e-002 
1305000000  2.110698e-002  -8.844893e-002 
1310000000  3.333014e-002  -8.608336e-002 
1315000000  4.664477e-002  -8.208453e-002 
1320000000  6.253158e-002  -8.319176e-002 
1325000000  7.272802e-002  -8.804907e-002 
1330000000  8.158889e-002  -8.999512e-002 
1335000000  8.972520e-002  -9.317677e-002 
1340000000  9.835871e-002  -9.537199e-002 
1345000000  1.040198e-001  -9.816433e-002 
1350000000  1.130109e-001  -9.982424e-002 
1355000000  1.193056e-001  -1.060434e-001 
1360000000  1.238909e-001  -1.105473e-001 
1365000000  1.243353e-001  -1.158463e-001 
1370000000  1.235247e-001  -1.159876e-001 
1375000000  1.257040e-001  -1.141667e-001 
1380000000  1.289900e-001  -1.134167e-001 
1385000000  1.307136e-001  -1.116193e-001 
1390000000  1.350158e-001  -1.112501e-001 
1395000000  1.348366e-001  -1.097633e-001 
1400000000  1.375364e-001  -1.036994e-001 
1405000000  1.414983e-001  -9.795515e-002 
1410000000  1.495173e-001  -9.064759e-002 
1415000000  1.587365e-001  -8.964986e-002 
1420000000  1.642702e-001  -8.564468e-002 
1425000000  1.732323e-001  -7.934797e-002 
1430000000  1.849980e-001  -7.527277e-002 
1435000000  2.006834e-001  -7.394203e-002 
1440000000  2.129695e-001  -7.849256e-002 
1445000000  2.231605e-001  -8.194985e-002 
1450000000  2.321754e-001  -8.478220e-002 
1455000000  2.423567e-001  -8.827361e-002 
1460000000  2.536933e-001  -9.032613e-002 
1465000000  2.663957e-001  -9.932432e-002 
1470000000  2.714951e-001  -1.062423e-001 
1475000000  2.803293e-001  -1.113910e-001 
1480000000  2.877947e-001  -1.182593e-001 
1485000000  2.942285e-001  -1.245726e-001 
1490000000  3.008088e-001  -1.307568e-001 
1495000000  3.079943e-001  -1.383810e-001 
1500000000  3.139683e-001  -1.479027e-001 
1505000000  3.153929e-001  -1.572042e-001 
1510000000  3.182071e-001  -1.626165e-001 
1515000000  3.225681e-001  -1.678263e-001 
1520000000  3.258889e-001  -1.739167e-001 
1525000000  3.295074e-001  -1.782765e-001 
1530000000  3.345739e-001  -1.832831e-001 
1535000000  3.387767e-001  -1.886965e-001 
1540000000  3.441452e-001  -1.947656e-001 
1545000000  3.498517e-001  -2.017393e-001 
1550000000  3.539309e-001  -2.110508e-001 
1555000000  3.575382e-001  -2.199019e-001 
1560000000  3.592629e-001  -2.283873e-001 
1565000000  3.610253e-001  -2.364865e-001 
1570000000  3.623978e-001  -2.446849e-001 
1575000000  3.639693e-001  -2.512068e-001 
1580000000  3.667302e-001  -2.609188e-001 
1585000000  3.648241e-001  -2.729886e-001 
1590000000  3.600777e-001  -2.823309e-001 
1595000000  3.546345e-001  -2.889383e-001 
1600000000  3.491166e-001  -2.929434e-001 
1605000000  3.446970e-001  -2.967666e-001 
1610000000  3.406956e-001  -2.986003e-001 
1615000000  3.383465e-001  -3.014136e-001 
1620000000  3.349667e-001  -3.028504e-001 
1625000000  3.334282e-001  -3.049491e-001 
1630000000  3.316717e-001  -3.074931e-001 
1635000000  3.283649e-001  -3.100026e-001 
1640000000  3.244209e-001  -3.096557e-001 
1645000000  3.236043e-001  -3.083402e-001 
1650000000  3.219220e-001  -3.068418e-001 
1655000000  3.244093e-001  -3.060627e-001 
1660000000  3.238820e-001  -3.090248e-001 
1665000000  3.212436e-001  -3.084410e-001 
1670000000  3.200528e-001  -3.046182e-001 
1675000000  3.227431e-001  -3.015951e-001 
1680000000  3.249664e-001  -2.977121e-001 
1685000000  3.309530e-001  -2.942989e-001 
1690000000  3.386989e-001  -2.931307e-001 
1695000000  3.472258e-001  -2.953658e-001 
1700000000  3.541046e-001  -2.984727e-001 
1705000000  3.605655e-001  -3.019930e-001 
1710000000  3.675995e-001  -3.052056e-001 
1715000000  3.751645e-001  -3.113939e-001 
1720000000  3.805323e-001  -3.187762e-001 
1725000000  3.841869e-001  -3.253684e-001 
1730000000  3.891358e-001  -3.298593e-001 
1735000000  3.953822e-001  -3.387983e-001 
1740000000  3.988894e-001  -3.475442e-001 
1745000000  3.997022e-001  -3.566836e-001 
1750000000  3.999341e-001  -3.628256e-001 
1755000000  3.997766e-001  -3.678722e-001 
1760000000  4.021924e-001  -3.703476e-001 
1765000000  4.082107e-001  -3.736024e-001 
1770000000  4.170659e-001  -3.816397e-001 
1775000000  4.233516e-001  -3.948238e-001 
1780000000  4.244716e-001  -4.087462e-001 
1785000000  4.217978e-001  -4.206228e-001 
1790000000  4.197566e-001  -4.295893e-001 
1795000000  4.177768e-001  -4.381877e-001 
1800000000  4.158926e-001  -4.465604e-001 
1805000000  4.137399e-001  -4.553808e-001 
1810000000  4.105695e-001  -4.647585e-001 
1815000000  4.062676e-001  -4.721836e-001 
1820000000  4.029666e-001  -4.776532e-001 
1825000000  3.998501e-001  -4.845916e-001 
1830000000  3.967890e-001  -4.904870e-001 
1835000000  3.937463e-001  -4.969914e-001 
1840000000  3.900079e-001  -5.023485e-001 
1845000000  3.881824e-001  -5.084469e-001 
1850000000  3.846767e-001  -5.156128e-001 
1855000000  3.800905e-001  -5.224850e-001 
1860000000  3.752265e-001  -5.276997e-001 
1865000000  3.713908e-001  -5.323356e-001 
1870000000  3.684112e-001  -5.388758e-001 
1875000000  3.629471e-001  -5.451108e-001 
1880000000  3.575944e-001  -5.506992e-001 
1885000000  3.512033e-001  -5.544613e-001 
1890000000  3.464660e-001  -5.574804e-001 
1895000000  3.437505e-001  -5.610472e-001 
1900000000  3.399161e-001  -5.659363e-001 
1905000000  3.349573e-001  -5.709771e-001 
1910000000  3.309875e-001  -5.760973e-001 
1915000000  3.231207e-001  -5.815618e-001 
1920000000  3.149780e-001  -5.827830e-001 
1925000000  3.091896e-001  -5.827944e-001 
1930000000  3.060491e-001  -5.826167e-001 
1935000000  3.021007e-001  -5.846719e-001 
1940000000  2.984816e-001  -5.860353e-001 
1945000000  2.951751e-001  -5.874392e-001 
1950000000  2.903254e-001  -5.888646e-001 
1955000000  2.872806e-001  -5.879046e-001 
1960000000  2.845154e-001  -5.878186e-001 
1965000000  2.820975e-001  -5.868142e-001 
1970000000  2.823984e-001  -5.848230e-001 
1975000000  2.845297e-001  -5.845570e-001 
1980000000  2.876154e-001  -5.868251e-001 
1985000000  2.889247e-001  -5.907168e-001 
1990000000  2.908371e-001  -5.936368e-001 
1995000000  2.929760e-001  -5.982988e-001 
2000000000  2.940224e-001  -6.042471e-001 
2005000000  2.945240e-001  -6.094678e-001 
2010000000  2.955183e-001  -6.155592e-001 
2015000000  2.964574e-001  -6.228615e-001 
2020000000  2.966282e-001  -6.315235e-001 
2025000000  2.949052e-001  -6.409979e-001 
2030000000  2.920679e-001  -6.491666e-001 
2035000000  2.894874e-001  -6.581705e-001 
2040000000  2.853120e-001  -6.672306e-001 
2045000000  2.802106e-001  -6.757557e-001 
2050000000  2.735412e-001  -6.842191e-001 
2055000000  2.681744e-001  -6.907583e-001 
2060000000  2.617095e-001  -6.981015e-001 
2065000000  2.537484e-001  -7.043223e-001 
2070000000  2.469001e-001  -7.096122e-001 
2075000000  2.390047e-001  -7.150465e-001 
2080000000  2.314171e-001  -7.195436e-001 
2085000000  2.240549e-001  -7.234607e-001 
2090000000  2.174848e-001  -7.269477e-001 
2095000000  2.113161e-001  -7.310846e-001 
2100000000  2.045170e-001  -7.354014e-001 
2105000000  1.975909e-001  -7.394629e-001 
2110000000  1.907250e-001  -7.426991e-001 
2115000000  1.836517e-001  -7.458110e-001 
2120000000  1.762896e-001  -7.489818e-001 
2125000000  1.688922e-001  -7.511448e-001 
2130000000  1.625776e-001  -7.524875e-001 
2135000000  1.567864e-001  -7.545931e-001 
2140000000  1.510177e-001  -7.570317e-001 
2145000000  1.448516e-001  -7.596026e-001 
2150000000  1.380756e-001  -7.625632e-001 
2155000000  1.306112e-001  -7.640499e-001 
2160000000  1.248077e-001  -7.650785e-001 
2165000000  1.186625e-001  -7.671033e-001 
2170000000  1.123464e-001  -7.693098e-001 
2175000000  1.055994e-001  -7.705086e-001 
2180000000  9.906571e-002  -7.721103e-001 
2185000000  9.218394e-002  -7.732408e-001 
2190000000  8.502715e-002  -7.730442e-001 
2195000000  7.916564e-002  -7.728551e-001 
2200000000  7.389548e-002  -7.732472e-001 
2205000000  6.931265e-002  -7.740642e-001 
2210000000  6.397392e-002  -7.762022e-001 
2215000000  5.703028e-002  -7.779096e-001 
2220000000  5.044169e-002  -7.778707e-001 
2225000000  4.479816e-002  -7.776570e-001 
2230000000  3.946165e-002  -7.785084e-001 
2235000000  3.321815e-002  -7.791234e-001 
2240000000  2.726535e-002  -7.789959e-001 
2245000000  2.230552e-002  -7.794294e-001 
2250000000  1.724777e-002  -7.804760e-001 
2255000000  1.161181e-002  -7.819047e-001 
2260000000  5.028036e-003  -7.834498e-001 
2265000000  -2.114747e-003  -7.843205e-001 
2270000000  -9.309550e-003  -7.835705e-001 
2275000000  -1.570774e-002  -7.829554e-001 
2280000000  -2.140455e-002  -7.819728e-001 
2285000000  -2.631613e-002  -7.822990e-001 
2290000000  -3.211495e-002  -7.831311e-001 
2295000000  -3.878640e-002  -7.846907e-001 
2300000000  -4.622724e-002  -7.850308e-001 
2305000000  -5.371818e-002  -7.850209e-001 
2310000000  -6.036510e-002  -7.841445e-001 
2315000000  -6.669282e-002  -7.838141e-001 
2320000000  -7.282905e-002  -7.826924e-001 
2325000000  -7.828288e-002  -7.812557e-001 
2330000000  -8.246613e-002  -7.800545e-001 
2335000000  -8.739173e-002  -7.803538e-001 
2340000000  -9.302758e-002  -7.798375e-001 
2345000000  -9.798299e-002  -7.788293e-001 
2350000000  -1.023950e-001  -7.791839e-001 
2355000000  -1.079903e-001  -7.798845e-001 
2360000000  -1.139069e-001  -7.795659e-001 
2365000000  -1.189803e-001  -7.789426e-001 
2370000000  -1.240401e-001  -7.785006e-001 
2375000000  -1.289312e-001  -7.788429e-001 
2380000000  -1.358739e-001  -7.794451e-001 
2385000000  -1.425191e-001  -7.777839e-001 
2390000000  -1.478485e-001  -7.755075e-001 
2395000000  -1.529057e-001  -7.738414e-001 
2400000000  -1.573944e-001  -7.727205e-001 
2405000000  -1.627208e-001  -7.717992e-001 
2410000000  -1.664262e-001  -7.706984e-001 
2415000000  -1.705904e-001  -7.711029e-001 
2420000000  -1.754831e-001  -7.703778e-001 
2425000000  -1.806345e-001  -7.698879e-001 
2430000000  -1.862277e-001  -7.684091e-001 
2435000000  -1.916899e-001  -7.664933e-001 
2440000000  -1.970708e-001  -7.639276e-001 
2445000000  -2.020983e-001  -7.611286e-001 
2450000000  -2.076900e-001  -7.587826e-001 
2455000000  -2.131995e-001  -7.556188e-001 
2460000000  -2.184349e-001  -7.526984e-001 
2465000000  -2.225673e-001  -7.495531e-001 
2470000000  -2.264925e-001  -7.474822e-001 
2475000000  -2.305220e-001  -7.454010e-001 
2480000000  -2.348083e-001  -7.437388e-001 
2485000000  -2.391431e-001  -7.425792e-001 
2490000000  -2.440148e-001  -7.413968e-001 
2495000000  -2.491112e-001  -7.400455e-001 
2500000000  -2.544807e-001  -7.378864e-001 
2505000000  -2.593347e-001  -7.362295e-001 
2510000000  -2.650045e-001  -7.342280e-001 
2515000000  -2.702732e-001  -7.313367e-001 
2520000000  -2.758068e-001  -7.289060e-001 
2525000000  -2.833385e-001  -7.254822e-001 
2530000000  -2.909837e-001  -7.209424e-001 
2535000000  -2.976486e-001  -7.157269e-001 
2540000000  -3.048501e-001  -7.120610e-001 
2545000000  -3.119206e-001  -7.084612e-001 
2550000000  -3.178801e-001  -7.046456e-001 
2555000000  -3.223549e-001  -7.017651e-001 
2560000000  -3.263042e-001  -6.991565e-001 
2565000000  -3.292812e-001  -6.966775e-001 
2570000000  -3.320319e-001  -6.951507e-001 
2575000000  -3.354527e-001  -6.931036e-001 
2580000000  -3.389518e-001  -6.903751e-001 
2585000000  -3.420830e-001  -6.872768e-001 
2590000000  -3.455645e-001  -6.847863e-001 
2595000000  -3.494646e-001  -6.814646e-001 
2600000000  -3.536482e-001  -6.784818e-001 
2605000000  -3.581782e-001  -6.751280e-001 
2610000000  -3.627487e-001  -6.705623e-001 
2615000000  -3.661529e-001  -6.659395e-001 
2620000000  -3.696786e-001  -6.622961e-001 
2625000000  -3.741382e-001  -6.588044e-001 
2630000000  -3.798149e-001  -6.547868e-001 
2635000000  -3.850424e-001  -6.499093e-001 
2640000000  -3.897504e-001  -6.457700e-001 
2645000000  -3.949605e-001  -6.413786e-001 
2650000000  -3.982836e-001  -6.371261e-001 
2655000000  -4.003626e-001  -6.351686e-001 
2660000000  -4.032431e-001  -6.345063e-001 
2665000000  -4.061446e-001  -6.333270e-001 
2670000000  -4.099600e-001  -6.316448e-001 
2675000000  -4.141364e-001  -6.289086e-001 
2680000000  -4.189140e-001  -6.248472e-001 
2685000000  -4.227839e-001  -6.200681e-001 
2690000000  -4.264398e-001  -6.152778e-001 
2695000000  -4.296355e-001  -6.108891e-001 
2700000000  -4.324454e-001  -6.078197e-001 
2705000000  -4.353005e-001  -6.046592e-001 
2710000000  -4.371369e-001  -6.026899e-001 
2715000000  -4.398770e-001  -6.008427e-001 
2720000000  -4.421665e-001  -5.984378e-001 
2725000000  -4.440689e-001  -5.961416e-001 
2730000000  -4.469160e-001  -5.936659e-001 
2735000000  -4.502166e-001  -5.911451e-001 
2740000000  -4.537837e-001  -5.874186e-001 
2745000000  -4.561747e-001  -5.829749e-001 
2750000000  -4.589887e-001  -5.796424e-001 
2755000000  -4.616198e-001  -5.760418e-001 
2760000000  -4.633234e-001  -5.733536e-001 
2765000000  -4.671684e-001  -5.706838e-001 
2770000000  -4.704122e-001  -5.664902e-001 
2775000000  -4.723595e-001  -5.615640e-001 
2780000000  -4.741313e-001  -5.578268e-001 
2785000000  -4.767206e-001  -5.534040e-001 
2790000000  -4.785140e-001  -5.479279e-001 
2795000000  -4.799002e-001  -5.425609e-001 
2800000000  -4.826660e-001  -5.378965e-001 
2805000000  -4.850444e-001  -5.328235e-001 
2810000000  -4.869490e-001  -5.285916e-001 
2815000000  -4.884439e-001  -5.252122e-001 
2820000000  -4.901014e-001  -5.227732e-001 
2825000000  -4.917059e-001  -5.203235e-001 
2830000000  -4.918235e-001  -5.186458e-001 
2835000000  -4.936534e-001  -5.171672e-001 
2840000000  -4.943078e-001  -5.154034e-001 
2845000000  -4.947610e-001  -5.137084e-001 
2850000000  -4.964548e-001  -5.119510e-001 
2855000000  -4.989566e-001  -5.101750e-001 
2860000000  -5.018997e-001  -5.080488e-001 
2865000000  -5.049720e-001  -5.037904e-001 
2870000000  -5.074716e-001  -4.998163e-001 
2875000000  -5.099635e-001  -4.951741e-001 
2880000000  -5.116553e-001  -4.906499e-001 
2885000000  -5.132632e-001  -4.868838e-001 
2890000000  -5.151545e-001  -4.842851e-001 
2895000000  -5.181634e-001  -4.806599e-001 
2900000000  -5.212343e-001  -4.777109e-001 
2905000000  -5.237046e-001  -4.750515e-001 
2910000000  -5.251918e-001  -4.730529e-001 
2915000000  -5.259188e-001  -4.723604e-001 
2920000000  -5.284517e-001  -4.726848e-001 
2925000000  -5.325505e-001  -4.716486e-001 
2930000000  -5.368296e-001  -4.686895e-001 
2935000000  -5.402141e-001  -4.650898e-001 
2940000000  -5.436504e-001  -4.605832e-001 
2945000000  -5.473259e-001  -4.557974e-001 
2950000000  -5.498534e-001  -4.499126e-001 
2955000000  -5.516235e-001  -4.445164e-001 
2960000000  -5.534986e-001  -4.406283e-001 
2965000000  -5.551538e-001  -4.376496e-001 
2970000000  -5.575485e-001  -4.344622e-001 
2975000000  -5.586818e-001  -4.318462e-001 
2980000000  -5.616965e-001  -4.301333e-001 
2985000000  -5.642751e-001  -4.283686e-001 
2990000000  -5.678793e-001  -4.262765e-001 
2995000000  -5.713664e-001  -4.237524e-001 
3000000000  -5.744584e-001  -4.216526e-001 
3005000000  -5.777498e-001  -4.197807e-001 
3010000000  -5.806179e-001  -4.158359e-001 
3015000000  -5.825750e-001  -4.122644e-001 
3020000000  -5.848652e-001  -4.078334e-001 
3025000000  -5.860688e-001  -4.029093e-001 
3030000000  -5.874554e-001  -3.985826e-001 
3035000000  -5.885481e-001  -3.952421e-001 
3040000000  -5.911829e-001  -3.911583e-001 
3045000000  -5.936691e-001  -3.875573e-001 
3050000000  -5.958125e-001  -3.842841e-001 
3055000000  -5.981878e-001  -3.821445e-001 
3060000000  -6.008104e-001  -3.792311e-001 
3065000000  -6.023004e-001  -3.764449e-001 
3070000000  -6.040001e-001  -3.746767e-001 
3075000000  -6.071172e-001  -3.727776e-001 
3080000000  -6.104907e-001  -3.699807e-001 
3085000000  -6.138330e-001  -3.648819e-001 
3090000000  -6.166075e-001  -3.604496e-001 
3095000000  -6.207625e-001  -3.541645e-001 
3100000000  -6.234771e-001  -3.477796e-001 
3105000000  -6.260056e-001  -3.431668e-001 
3110000000  -6.277663e-001  -3.397494e-001 
3115000000  -6.292788e-001  -3.377222e-001 
3120000000  -6.322755e-001  -3.344473e-001 
3125000000  -6.373441e-001  -3.313459e-001 
3130000000  -6.434214e-001  -3.265742e-001 
3135000000  -6.490919e-001  -3.202351e-001 
3140000000  -6.550588e-001  -3.128701e-001 
3145000000  -6.590621e-001  -3.071029e-001 
3150000000  -6.632903e-001  -3.014952e-001 
3155000000  -6.680896e-001  -2.974859e-001 
3160000000  -6.728138e-001  -2.939999e-001 
3165000000  -6.783319e-001  -2.867121e-001 
3170000000  -6.825480e-001  -2.806369e-001 
3175000000  -6.868391e-001  -2.735930e-001 
3180000000  -6.911785e-001  -2.664822e-001 
3185000000  -6.960936e-001  -2.587780e-001 
3190000000  -7.019953e-001  -2.504184e-001 
3195000000  -7.060421e-001  -2.409668e-001 
3200000000  -7.105515e-001  -2.339087e-001 
3205000000  -7.157995e-001  -2.255047e-001 
3210000000  -7.206429e-001  -2.184761e-001 
3215000000  -7.242851e-001  -2.030321e-001 
3220000000  -7.273018e-001  -1.913040e-001 
3225000000  -7.307994e-001  -1.823486e-001 
3230000000  -7.338288e-001  -1.740023e-001 
3235000000  -7.367446e-001  -1.668357e-001 
3240000000  -7.380521e-001  -1.581961e-001 
3245000000  -7.383074e-001  -1.468954e-001 
3250000000  -7.385858e-001  -1.355481e-001 
3255000000  -7.393482e-001  -1.265357e-001 
3260000000  -7.415137e-001  -1.175081e-001 
3265000000  -7.437685e-001  -1.080994e-001 
3270000000  -7.467145e-001  -9.826394e-002 
3275000000  -7.491262e-001  -8.790171e-002 
3280000000  -7.500412e-001  -7.740273e-002 
3285000000  -7.515515e-001  -6.695545e-002 
3290000000  -7.521332e-001  -5.452502e-002 
3295000000  -7.514106e-001  -4.217121e-002 
3300000000  -7.497679e-001  -2.976559e-002 
3305000000  -7.455091e-001  -1.617015e-002 
3310000000  -7.408695e-001  -3.253030e-003 
3315000000  -7.368767e-001  9.441895e-003 
3320000000  -7.337424e-001  2.186461e-002 
3325000000  -7.308085e-001  3.533893e-002 
3330000000  -7.267935e-001  5.077399e-002 
3335000000  -7.209533e-001  6.543812e-002 
3340000000  -7.138219e-001  7.995888e-002 
3345000000  -7.049250e-001  9.312803e-002 
3350000000  -6.979145e-001  1.048699e-001 
3355000000  -6.908686e-001  1.182444e-001 
3360000000  -6.816817e-001  1.324507e-001 
3365000000  -6.695175e-001  1.444573e-001 
3370000000  -6.585980e-001  1.542710e-001 
3375000000  -6.485330e-001  1.658082e-001 
3380000000  -6.359490e-001  1.782411e-001 
3385000000  -6.220606e-001  1.888171e-001 
3390000000  -6.077598e-001  1.979367e-001 
3395000000  -5.946503e-001  2.058986e-001 
3400000000  -5.845366e-001  2.142648e-001 
3405000000  -5.714959e-001  2.200297e-001 
3410000000  -5.613118e-001  2.277340e-001 
3415000000  -5.483124e-001  2.355745e-001 
3420000000  -5.345961e-001  2.403416e-001 
3425000000  -5.235617e-001  2.427563e-001 
3430000000  -5.145041e-001  2.470696e-001 
3435000000  -5.045463e-001  2.529266e-001 
3440000000  -4.938783e-001  2.584211e-001 
3445000000  -4.818144e-001  2.628938e-001 
3450000000  -4.708898e-001  2.660965e-001 
3455000000  -4.596797e-001  2.685516e-001 
3460000000  -4.501034e-001  2.701351e-001 
3465000000  -4.396816e-001  2.719697e-001 
3470000000  -4.307011e-001  2.738134e-001 
3475000000  -4.206749e-001  2.766090e-001 
3480000000  -4.106719e-001  2.779586e-001 
3485000000  -4.020845e-001  2.788413e-001 
3490000000  -3.947567e-001  2.816883e-001 
3495000000  -3.851250e-001  2.857632e-001 
3500000000  -3.751114e-001  2.886542e-001 
3505000000  -3.643290e-001  2.915892e-001 
3510000000  -3.525510e-001  2.930725e-001 
3515000000  -3.419272e-001  2.929833e-001 
3520000000  -3.327959e-001  2.944545e-001 
3525000000  -3.199122e-001  2.966882e-001 
3530000000  -3.062632e-001  2.962492e-001 
3535000000  -2.928332e-001  2.941713e-001 
3540000000  -2.796963e-001  2.911975e-001 
3545000000  -2.663287e-001  2.873267e-001 
3550000000  -2.542365e-001  2.826552e-001 
3555000000  -2.417024e-001  2.781494e-001 
3560000000  -2.308550e-001  2.729096e-001 
3565000000  -2.200468e-001  2.692734e-001 
3570000000  -2.093926e-001  2.648877e-001 
3575000000  -1.986628e-001  2.610086e-001 
3580000000  -1.872002e-001  2.560195e-001 
3585000000  -1.774267e-001  2.507577e-001 
3590000000  -1.668117e-001  2.443691e-001 
3595000000  -1.581596e-001  2.377965e-001 
3600000000  -1.488404e-001  2.315070e-001 
3605000000  -1.396341e-001  2.251995e-001 
3610000000  -1.285514e-001  2.186188e-001 
3615000000  -1.173314e-001  2.084911e-001 
3620000000  -1.107375e-001  1.989637e-001 
3625000000  -1.029307e-001  1.919078e-001 
3630000000  -9.527336e-002  1.840432e-001 
3635000000  -8.837289e-002  1.772598e-001 
3640000000  -8.117727e-002  1.689256e-001 
3645000000  -7.609247e-002  1.615955e-001 
3650000000  -7.075097e-002  1.548211e-001 
3655000000  -6.472708e-002  1.492436e-001 
3660000000  -5.851955e-002  1.419171e-001 
3665000000  -5.271692e-002  1.355320e-001 
3670000000  -4.698824e-002  1.296990e-001 
3675000000  -3.871881e-002  1.215652e-001 
3680000000  -3.422048e-002  1.108666e-001 
3685000000  -3.158825e-002  1.026236e-001 
3690000000  -2.857468e-002  9.396780e-002 
3695000000  -2.662930e-002  8.683199e-002 
3700000000  -2.326842e-002  8.011744e-002 
3705000000  -2.006785e-002  7.280663e-002 
3710000000  -1.739449e-002  6.626405e-002 
3715000000  -1.383703e-002  5.933261e-002 
3720000000  -1.079495e-002  5.370592e-002 
3725000000  -5.612880e-003  4.632378e-002 
3730000000  -2.703076e-003  3.666417e-002 
3735000000  -2.255337e-003  2.832994e-002 
3740000000  -1.730333e-003  2.140162e-002 
3745000000  -6.996436e-004  1.514446e-002 
3750000000  5.861180e-004  8.555239e-003 
3755000000  2.562666e-003  1.791873e-003 
3760000000  4.306512e-003  -5.724071e-003 
3765000000  4.361942e-003  -1.365973e-002 
3770000000  4.324596e-003  -2.103017e-002 
3775000000  4.354115e-003  -2.743288e-002 
3780000000  5.090422e-003  -3.576484e-002 
3785000000  3.649351e-003  -4.331926e-002 
3790000000  2.582375e-003  -4.913153e-002 
3795000000  2.973076e-003  -5.435837e-002 
3800000000  4.350062e-003  -6.032482e-002 
3805000000  6.202663e-003  -6.775551e-002 
3810000000  5.968354e-003  -7.634128e-002 
3815000000  3.706851e-003  -8.398350e-002 
3820000000  1.622998e-003  -8.974317e-002 
3825000000  1.183114e-003  -9.647244e-002 
3830000000  -1.653179e-003  -1.043767e-001 
3835000000  -4.045541e-003  -1.095456e-001 
3840000000  -6.446883e-003  -1.149953e-001 
3845000000  -6.630696e-003  -1.186484e-001 
3850000000  -6.414195e-003  -1.249146e-001 
3855000000  -8.204525e-003  -1.317424e-001 
3860000000  -1.118035e-002  -1.369340e-001 
3865000000  -1.237950e-002  -1.422986e-001 
3870000000  -1.523269e-002  -1.483302e-001 
3875000000  -1.814709e-002  -1.529665e-001 
3880000000  -2.003683e-002  -1.582952e-001 
3885000000  -2.237918e-002  -1.628845e-001 
3890000000  -2.440548e-002  -1.670111e-001 
3895000000  -2.483873e-002  -1.709752e-001 
3900000000  -2.504533e-002  -1.770542e-001 
3905000000  -2.768273e-002  -1.838237e-001 
3910000000  -3.146971e-002  -1.890587e-001 
3915000000  -3.388545e-002  -1.923995e-001 
3920000000  -3.516741e-002  -1.980221e-001 
3925000000  -3.774313e-002  -2.024456e-001 
3930000000  -3.897716e-002  -2.074913e-001 
3935000000  -4.071280e-002  -2.130062e-001 
3940000000  -4.364216e-002  -2.184141e-001 
3945000000  -4.646620e-002  -2.231606e-001 
3950000000  -4.978354e-002  -2.285422e-001 
3955000000  -5.390489e-002  -2.324851e-001 
3960000000  -5.648996e-002  -2.361709e-001 
3965000000  -5.774196e-002  -2.401596e-001 
3970000000  -5.851517e-002  -2.460682e-001 
3975000000  -6.113457e-002  -2.525890e-001 
3980000000  -6.421588e-002  -2.587617e-001 
3985000000  -6.845942e-002  -2.638899e-001 
3990000000  -7.239845e-002  -2.687037e-001 
3995000000  -7.644191e-002  -2.737788e-001 
4000000000  -8.134799e-002  -2.784805e-001 
4005000000  -8.596481e-002  -2.821575e-001 
4010000000  -8.968582e-002  -2.854445e-001 
4015000000  -9.363320e-002  -2.898398e-001 
4020000000  -9.696185e-002  -2.931240e-001 
4025000000  -1.003831e-001  -2.964830e-001 
4030000000  -1.033046e-001  -3.004968e-001 
4035000000  -1.081851e-001  -3.044222e-001 
4040000000  -1.135241e-001  -3.064227e-001 
4045000000  -1.174662e-001  -3.077078e-001 
4050000000  -1.203217e-001  -3.107150e-001 
4055000000  -1.252153e-001  -3.143257e-001 
4060000000  -1.303559e-001  -3.171544e-001 
4065000000  -1.351950e-001  -3.203342e-001 
4070000000  -1.410649e-001  -3.231224e-001 
4075000000  -1.470088e-001  -3.253880e-001 
4080000000  -1.519892e-001  -3.264983e-001 
4085000000  -1.567747e-001  -3.280123e-001 
4090000000  -1.609965e-001  -3.284627e-001 
4095000000  -1.632911e-001  -3.297588e-001 
4100000000  -1.666381e-001  -3.326383e-001 
4105000000  -1.710888e-001  -3.344186e-001 
4110000000  -1.754552e-001  -3.362828e-001 
4115000000  -1.806740e-001  -3.381336e-001 
4120000000  -1.871181e-001  -3.399221e-001 
4125000000  -1.936406e-001  -3.410779e-001 
4130000000  -2.004286e-001  -3.418584e-001 
4135000000  -2.062636e-001  -3.433327e-001 
4140000000  -2.127421e-001  -3.459435e-001 
4145000000  -2.186430e-001  -3.471030e-001 
4150000000  -2.236128e-001  -3.491644e-001 
4155000000  -2.284166e-001  -3.515504e-001 
4160000000  -2.328995e-001  -3.537414e-001 
4165000000  -2.365681e-001  -3.564994e-001 
4170000000  -2.417338e-001  -3.601574e-001 
4175000000  -2.478672e-001  -3.632690e-001 
4180000000  -2.552605e-001  -3.656781e-001 
4185000000  -2.631783e-001  -3.676592e-001 
4190000000  -2.719159e-001  -3.687467e-001 
4195000000  -2.802824e-001  -3.677962e-001 
4200000000  -2.876769e-001  -3.664650e-001 
4205000000  -2.936631e-001  -3.655466e-001 
4210000000  -2.994020e-001  -3.655599e-001 
4215000000  -3.053868e-001  -3.667622e-001 
4220000000  -3.112094e-001  -3.673213e-001 
4225000000  -3.160843e-001  -3.675296e-001 
4230000000  -3.195325e-001  -3.690364e-001 
4235000000  -3.243524e-001  -3.707297e-001 
4240000000  -3.289698e-001  -3.724117e-001 
4245000000  -3.341341e-001  -3.736331e-001 
4250000000  -3.396586e-001  -3.736016e-001 
4255000000  -3.456212e-001  -3.726271e-001 
4260000000  -3.511396e-001  -3.712257e-001 
4265000000  -3.572213e-001  -3.698008e-001 
4270000000  -3.632308e-001  -3.678055e-001 
4275000000  -3.689051e-001  -3.658510e-001 
4280000000  -3.743914e-001  -3.639567e-001 
4285000000  -3.800381e-001  -3.624212e-001 
4290000000  -3.855461e-001  -3.602335e-001 
4295000000  -3.897648e-001  -3.586126e-001 
4300000000  -3.949799e-001  -3.572752e-001 
4305000000  -3.996977e-001  -3.550830e-001 
4310000000  -4.036782e-001  -3.536615e-001 
4315000000  -4.087247e-001  -3.513938e-001 
4320000000  -4.131394e-001  -3.492666e-001 
4325000000  -4.184638e-001  -3.466680e-001 
4330000000  -4.243092e-001  -3.432233e-001 
4335000000  -4.301817e-001  -3.391502e-001 
4340000000  -4.356795e-001  -3.354939e-001 
4345000000  -4.414340e-001  -3.319120e-001 
4350000000  -4.477355e-001  -3.285005e-001 
4355000000  -4.537729e-001  -3.247675e-001 
4360000000  -4.597877e-001  -3.202743e-001 
4365000000  -4.648643e-001  -3.155821e-001 
4370000000  -4.690667e-001  -3.125320e-001 
4375000000  -4.742083e-001  -3.096206e-001 
4380000000  -4.798988e-001  -3.061352e-001 
4385000000  -4.853916e-001  -3.323438e-001 
4390000000  -4.914005e-001  -3.283277e-001 
4395000000  -4.975689e-001  -3.248510e-001 
4400000000  -5.042602e-001  -3.208981e-001 
4405000000  -5.099090e-001  -3.161805e-001 
4410000000  -5.161151e-001  -3.108134e-001 
4415000000  -5.203665e-001  -3.063776e-001 
4420000000  -5.259079e-001  -3.013745e-001 
4425000000  -5.312815e-001  -2.966360e-001 
4430000000  -5.358758e-001  -2.921466e-001 
4435000000  -5.415244e-001  -2.876408e-001 
4440000000  -5.457336e-001  -2.822131e-001 
4445000000  -5.499056e-001  -2.781545e-001 
4450000000  -5.542374e-001  -2.735023e-001 
4455000000  -5.587546e-001  -2.696919e-001 
4460000000  -5.621257e-001  -2.658015e-001 
4465000000  -5.659465e-001  -2.619046e-001 
4470000000  -5.694847e-001  -2.592666e-001 
4475000000  -5.741799e-001  -2.551229e-001 
4480000000  -5.776642e-001  -2.514621e-001 
4485000000  -5.816476e-001  -2.480328e-001 
4490000000  -5.853855e-001  -2.438962e-001 
4495000000  -5.891400e-001  -2.397435e-001 
4500000000  -5.917884e-001  -2.355275e-001 
4505000000  -5.940807e-001  -2.309937e-001 
4510000000  -5.961834e-001  -2.269910e-001 
4515000000  -5.990254e-001  -2.237378e-001 
4520000000  -6.019167e-001  -2.197230e-001 
4525000000  -6.046308e-001  -2.150261e-001 
4530000000  -6.074016e-001  -2.113445e-001 
4535000000  -6.098522e-001  -2.073394e-001 
4540000000  -6.135830e-001  -2.028016e-001 
4545000000  -6.154994e-001  -1.979360e-001 
4550000000  -6.173514e-001  -1.943897e-001 
4555000000  -6.206887e-001  -1.906263e-001 
4560000000  -6.238252e-001  -1.867941e-001 
4565000000  -6.280583e-001  -1.816223e-001 
4570000000  -6.309932e-001  -1.759070e-001 
4575000000  -6.337311e-001  -1.694079e-001 
4580000000  -6.354290e-001  -1.633337e-001 
4585000000  -6.368151e-001  -1.573609e-001 
4590000000  -6.388428e-001  -1.519301e-001 
4595000000  -6.411220e-001  -1.453714e-001 
4600000000  -6.439157e-001  -1.384966e-001 
4605000000  -6.456415e-001  -1.310581e-001 
4610000000  -6.468433e-001  -1.241192e-001 
4615000000  -6.486498e-001  -1.173178e-001 
4620000000  -6.507839e-001  -1.098886e-001 
4625000000  -6.519442e-001  -1.029548e-001 
4630000000  -6.531118e-001  -9.605744e-002 
4635000000  -6.545922e-001  -9.077740e-002 
4640000000  -6.563358e-001  -8.348333e-002 
4645000000  -6.582945e-001  -7.821098e-002 
4650000000  -6.611079e-001  -7.077733e-002 
4655000000  -6.629760e-001  -6.314994e-002 
4660000000  -6.638085e-001  -5.515504e-002 
4665000000  -6.649934e-001  -4.840516e-002 
4670000000  -6.668139e-001  -4.017623e-002 
4675000000  -6.673663e-001  -3.282063e-002 
4680000000  -6.674384e-001  -2.457128e-002 
4685000000  -6.676202e-001  -1.789257e-002 
4690000000  -6.680486e-001  -1.141792e-002 
4695000000  -6.681383e-001  -3.956394e-003 
4700000000  -6.679358e-001  2.525673e-003 
4705000000  -6.685684e-001  8.403949e-003 
4710000000  -6.692475e-001  1.504849e-002 
4715000000  -6.695626e-001  2.203882e-002 
4720000000  -6.701307e-001  2.819753e-002 
4725000000  -6.703835e-001  3.479595e-002 
4730000000  -6.705936e-001  4.121495e-002 
4735000000  -6.707028e-001  4.658011e-002 
4740000000  -6.707559e-001  5.401468e-002 
4745000000  -6.703761e-001  6.007642e-002 
4750000000  -6.698122e-001  6.563269e-002 
4755000000  -6.695861e-001  7.234933e-002 
4760000000  -6.683477e-001  7.830822e-002 
4765000000  -6.669731e-001  8.402751e-002 
4770000000  -6.661803e-001  9.081060e-002 
4775000000  -6.653526e-001  9.678268e-002 
4780000000  -6.643609e-001  1.029006e-001 
4785000000  -6.630391e-001  1.088580e-001 
4790000000  -6.621312e-001  1.150285e-001 
4795000000  -6.602848e-001  1.225051e-001 
4800000000  -6.583691e-001  1.283165e-001 
4805000000  -6.561326e-001  1.346675e-001 
4810000000  -6.541619e-001  1.403931e-001 
4815000000  -6.520431e-001  1.466317e-001 
4820000000  -6.501983e-001  1.520360e-001 
4825000000  -6.484971e-001  1.578716e-001 
4830000000  -6.462827e-001  1.649622e-001 
4835000000  -6.434098e-001  1.704825e-001 
4840000000  -6.414104e-001  1.751700e-001 
4845000000  -6.402737e-001  1.810847e-001 
4850000000  -6.386924e-001  1.870615e-001 
4855000000  -6.358464e-001  1.941757e-001 
4860000000  -6.327055e-001  2.003497e-001 
4865000000  -6.302111e-001  2.057082e-001 
4870000000  -6.269128e-001  2.123207e-001 
4875000000  -6.235310e-001  2.176838e-001 
4880000000  -6.209202e-001  2.230019e-001 
4885000000  -6.176924e-001  2.299093e-001 
4890000000  -6.139508e-001  2.353652e-001 
4895000000  -6.103302e-001  2.398638e-001 
4900000000  -6.073117e-001  2.445089e-001 
4905000000  -6.038127e-001  2.500662e-001 
4910000000  -6.007382e-001  2.549520e-001 
4915000000  -5.966371e-001  2.598280e-001 
4920000000  -5.930908e-001  2.636888e-001 
4925000000  -5.895610e-001  2.682800e-001 
4930000000  -5.861378e-001  2.727112e-001 
4935000000  -5.824804e-001  2.769674e-001 
4940000000  -5.777752e-001  2.825052e-001 
4945000000  -5.729095e-001  2.858523e-001 
4950000000  -5.691547e-001  2.892572e-001 
4955000000  -5.650076e-001  2.938537e-001 
4960000000  -5.600436e-001  2.976235e-001 
4965000000  -5.554661e-001  3.002929e-001 
4970000000  -5.520768e-001  3.041442e-001 
4975000000  -5.488551e-001  3.084780e-001 
4980000000  -5.447965e-001  3.134449e-001 
4985000000  -5.394886e-001  3.184704e-001 
4990000000  -5.346768e-001  3.223453e-001 
4995000000  -5.294380e-001  3.258994e-001 
5000000000  -5.249281e-001  3.297975e-001 
5005000000  -5.206851e-001  3.336093e-001 
5010000000  -5.166128e-001  3.381299e-001 
5015000000  -5.116826e-001  3.430184e-001 
5020000000  -5.064706e-001  3.476576e-001 
5025000000  -5.012729e-001  3.522965e-001 
5030000000  -4.958551e-001  3.570141e-001 
5035000000  -4.898900e-001  3.614146e-001 
5040000000  -4.844630e-001  3.651091e-001 
5045000000  -4.795320e-001  3.701060e-001 
5050000000  -4.741002e-001  3.745657e-001 
5055000000  -4.682209e-001  3.800297e-001 
5060000000  -4.613861e-001  3.849406e-001 
5065000000  -4.548367e-001  3.885475e-001 
5070000000  -4.489256e-001  3.919782e-001 
5075000000  -4.434173e-001  3.953951e-001 
5080000000  -4.383731e-001  3.988495e-001 
5085000000  -4.331084e-001  4.020633e-001 
5090000000  -4.288258e-001  4.044336e-001 
5095000000  -4.246290e-001  4.081617e-001 
5100000000  -4.203779e-001  4.117616e-001 
5105000000  -4.152101e-001  4.161879e-001 
5110000000  -4.098516e-001  4.196916e-001 
5115000000  -4.046016e-001  4.228453e-001 
5120000000  -3.990575e-001  4.255943e-001 
5125000000  -3.937832e-001  4.279401e-001 
5130000000  -3.892829e-001  4.297909e-001 
5135000000  -3.844271e-001  4.327182e-001 
5140000000  -3.794261e-001  4.352582e-001 
5145000000  -3.745204e-001  4.376296e-001 
5150000000  -3.691796e-001  4.396491e-001 
5155000000  -3.639213e-001  4.417841e-001 
5160000000  -3.582591e-001  4.431299e-001 
5165000000  -3.526464e-001  4.440322e-001 
5170000000  -3.480592e-001  4.448256e-001 
5175000000  -3.440226e-001  4.465415e-001 
5180000000  -3.388138e-001  4.493165e-001 
5185000000  -3.319273e-001  4.513007e-001 
5190000000  -3.246738e-001  4.523280e-001 
5195000000  -3.179763e-001  4.514506e-001 
5200000000  -3.127109e-001  4.504548e-001 
5205000000  -3.084488e-001  4.507519e-001 
5210000000  -3.032620e-001  4.526337e-001 
5215000000  -2.967116e-001  4.544840e-001 
5220000000  -2.894760e-001  4.560159e-001 
5225000000  -2.819261e-001  4.563465e-001 
5230000000  -2.748438e-001  4.566067e-001 
5235000000  -2.682078e-001  4.565952e-001 
5240000000  -2.618327e-001  4.567237e-001 
5245000000  -2.551280e-001  4.575678e-001 
5250000000  -2.472709e-001  4.574147e-001 
5255000000  -2.407446e-001  4.564591e-001 
5260000000  -2.346205e-001  4.561777e-001 
5265000000  -2.284698e-001  4.566551e-001 
5270000000  -2.211087e-001  4.572244e-001 
5275000000  -2.137030e-001  4.572841e-001 
5280000000  -2.064865e-001  4.564073e-001 
5285000000  -1.999194e-001  4.558180e-001 
5290000000  -1.930658e-001  4.547796e-001 
5295000000  -1.875002e-001  4.533721e-001 
5300000000  -1.822059e-001  4.529996e-001 
5305000000  -1.769698e-001  4.526752e-001 
5310000000  -1.711475e-001  4.524420e-001 
5315000000  -1.660317e-001  4.519194e-001 
5320000000  -1.611322e-001  4.518270e-001 
5325000000  -1.566887e-001  4.522257e-001 
5330000000  -1.518901e-001  4.534912e-001 
5335000000  -1.467365e-001  4.545601e-001 
5340000000  -1.407708e-001  4.555241e-001 
5345000000  -1.346480e-001  4.559012e-001 
5350000000  -1.284079e-001  4.556731e-001 
5355000000  -1.222294e-001  4.551840e-001 
5360000000  -1.155745e-001  4.535862e-001 
5365000000  -1.104535e-001  4.507228e-001 
5370000000  -1.070363e-001  4.486956e-001 
5375000000  -1.038976e-001  4.481661e-001 
5380000000  -9.946392e-002  4.487077e-001 
5385000000  -9.377314e-002  4.486910e-001 
5390000000  -8.853496e-002  4.477632e-001 
5395000000  -8.310413e-002  4.466288e-001 
5400000000  -7.811491e-002  4.458162e-001 
5405000000  -7.249822e-002  4.451390e-001 
5410000000  -6.697679e-002  4.441608e-001 
5415000000  -6.100798e-002  4.432015e-001 
5420000000  -5.502163e-002  4.418087e-001 
5425000000  -4.880976e-002  4.403808e-001 
5430000000  -4.264412e-002  4.384001e-001 
5435000000  -3.667830e-002  4.364374e-001 
5440000000  -3.057781e-002  4.345828e-001 
5445000000  -2.431624e-002  4.324600e-001 
5450000000  -1.784454e-002  4.306145e-001 
5455000000  -1.100293e-002  4.288340e-001 
5460000000  -3.692478e-003  4.265879e-001 
5465000000  3.739889e-003  4.245099e-001 
5470000000  1.224649e-002  4.217488e-001 
5475000000  2.001937e-002  4.177887e-001 
5480000000  2.670840e-002  4.140012e-001 
5485000000  3.340876e-002  4.109213e-001 
5490000000  4.037469e-002  4.079296e-001 
5495000000  4.775780e-002  4.045536e-001 
5500000000  5.436943e-002  4.004453e-001 
5505000000  6.116406e-002  3.969160e-001 
5510000000  6.810692e-002  3.925871e-001 
5515000000  7.407727e-002  3.877182e-001 
5520000000  7.933611e-002  3.836223e-001 
5525000000  8.460432e-002  3.804851e-001 
5530000000  8.986090e-002  3.776477e-001 
5535000000  9.565413e-002  3.752203e-001 
5540000000  1.019691e-001  3.722119e-001 
5545000000  1.087962e-001  3.689374e-001 
5550000000  1.156276e-001  3.641357e-001 
5555000000  1.207279e-001  3.582799e-001 
5560000000  1.242711e-001  3.532979e-001 
5565000000  1.280939e-001  3.490504e-001 
5570000000  1.317699e-001  3.449890e-001 
5575000000  1.351925e-001  3.411225e-001 
5580000000  1.389962e-001  3.376804e-001 
5585000000  1.436217e-001  3.335134e-001 
5590000000  1.473671e-001  3.286150e-001 
5595000000  1.508161e-001  3.233727e-001 
5600000000  1.539696e-001  3.180193e-001 
5605000000  1.562814e-001  3.129803e-001 
5610000000  1.593624e-001  3.082866e-001 
5615000000  1.625856e-001  3.029995e-001 
5620000000  1.659763e-001  2.971289e-001 
5625000000  1.691049e-001  2.906936e-001 
5630000000  1.716592e-001  2.837510e-001 
5635000000  1.733121e-001  2.772195e-001 
5640000000  1.757625e-001  2.714135e-001 
5645000000  1.782485e-001  2.649165e-001 
5650000000  1.798923e-001  2.587993e-001 
5655000000  1.819192e-001  2.535836e-001 
5660000000  1.853877e-001  2.486639e-001 
5665000000  1.894375e-001  2.430901e-001 
5670000000  1.943654e-001  2.363542e-001 
5675000000  1.979021e-001  2.280875e-001 
5680000000  2.008277e-001  2.202581e-001 
5685000000  2.031494e-001  2.130583e-001 
5690000000  2.057871e-001  2.063149e-001 
5695000000  2.089165e-001  2.001171e-001 
5700000000  2.126147e-001  1.936963e-001 
5705000000  2.170206e-001  1.864267e-001 
5710000000  2.210364e-001  1.783819e-001 
5715000000  2.243378e-001  1.697088e-001 
5720000000  2.263264e-001  1.614230e-001 
5725000000  2.284662e-001  1.541903e-001 
5730000000  2.307521e-001  1.471343e-001 
5735000000  2.334697e-001  1.405380e-001 
5740000000  2.367138e-001  1.328230e-001 
5745000000  2.389967e-001  1.253092e-001 
5750000000  2.410830e-001  1.179432e-001 
5755000000  2.433304e-001  1.108243e-001 
5760000000  2.456367e-001  1.033144e-001 
5765000000  2.469648e-001  9.498885e-002 
5770000000  2.475286e-001  8.729331e-002 
5775000000  2.474178e-001  8.020846e-002 
5780000000  2.478720e-001  7.414630e-002 
5785000000  2.494449e-001  6.781916e-002 
5790000000  2.510963e-001  5.992042e-002 
5795000000  2.517763e-001  5.083504e-002 
5800000000  2.507430e-001  4.138922e-002 
5805000000  2.478151e-001  3.269781e-002 
5810000000  2.445621e-001  2.565746e-002 
5815000000  2.418270e-001  1.961768e-002 
5820000000  2.398590e-001  1.390593e-002 
5825000000  2.387900e-001  8.022330e-003 
5830000000  2.385152e-001  3.185125e-004 
5835000000  2.370419e-001  -8.959060e-003 
5840000000  2.335477e-001  -1.847021e-002 
5845000000  2.287619e-001  -2.694822e-002 
5850000000  2.236352e-001  -3.450605e-002 
5855000000  2.180486e-001  -4.107109e-002 
5860000000  2.134200e-001  -4.589198e-002 
5865000000  2.108540e-001  -5.173786e-002 
5870000000  2.078351e-001  -5.951443e-002 
5875000000  2.033637e-001  -6.776445e-002 
5880000000  1.979539e-001  -7.519410e-002 
5885000000  1.924072e-001  -8.209977e-002 
5890000000  1.863326e-001  -8.763468e-002 
5895000000  1.815699e-001  -9.261683e-002 
5900000000  1.774037e-001  -9.779816e-002 
5905000000  1.736191e-001  -1.030694e-001 
5910000000  1.699110e-001  -1.087710e-001 
5915000000  1.663072e-001  -1.151806e-001 
5920000000  1.613075e-001  -1.216947e-001 
5925000000  1.563935e-001  -1.274481e-001 
5930000000  1.513727e-001  -1.332077e-001 
5935000000  1.463766e-001  -1.378054e-001 
5940000000  1.422248e-001  -1.422325e-001 
5945000000  1.383514e-001  -1.468150e-001 
5950000000  1.351290e-001  -1.517558e-001 
5955000000  1.311132e-001  -1.578264e-001 
5960000000  1.257739e-001  -1.628195e-001 
5965000000  1.203276e-001  -1.671936e-001 
5970000000  1.145734e-001  -1.714078e-001 
5975000000  1.086429e-001  -1.748795e-001 
5980000000  1.029107e-001  -1.786278e-001 
5985000000  9.708071e-002  -1.829159e-001 
5990000000  9.133599e-002  -1.859885e-001 
5995000000  8.643001e-002  -1.889087e-001 
6000000000  8.267394e-002  -1.920583e-001 
