!Agilent Technologies,E8364B,MY43040633,A.07.50.37
!Agilent E8364B: A.07.50.37
!Date: Tuesday, December 16, 2025 17:12:16
!Correction: S11(Full 1 Port(1)) 
!S1P File: Measurement: S11:
# Hz S  RI   R 50
1000000000  2.843112e-001  9.270326e-001 
1005000000  2.957104e-001  9.228616e-001 
1010000000  3.072623e-001  9.195225e-001 
1015000000  3.196761e-001  9.148186e-001 
1020000000  3.301592e-001  9.111009e-001 
1025000000  3.414390e-001  9.066393e-001 
1030000000  3.529446e-001  9.018882e-001 
1035000000  3.644133e-001  8.975198e-001 
1040000000  3.757249e-001  8.930976e-001 
1045000000  3.867236e-001  8.881682e-001 
1050000000  3.984161e-001  8.837877e-001 
1055000000  4.098701e-001  8.781333e-001 
1060000000  4.227856e-001  8.731588e-001 
1065000000  4.337184e-001  8.672683e-001 
1070000000  4.451710e-001  8.623028e-001 
1075000000  4.565518e-001  8.567987e-001 
1080000000  4.684106e-001  8.503898e-001 
1085000000  4.797941e-001  8.445667e-001 
1090000000  4.919198e-001  8.378340e-001 
1095000000  5.028077e-001  8.310153e-001 
1100000000  5.140283e-001  8.238518e-001 
1105000000  5.252745e-001  8.167887e-001 
1110000000  5.359128e-001  8.098608e-001 
1115000000  5.476724e-001  8.020368e-001 
1120000000  5.572329e-001  7.946330e-001 
1125000000  5.689045e-001  7.868134e-001 
1130000000  5.788270e-001  7.783691e-001 
1135000000  5.889196e-001  7.708692e-001 
1140000000  5.992553e-001  7.627888e-001 
1145000000  6.095647e-001  7.543297e-001 
1150000000  6.188766e-001  7.464658e-001 
1155000000  6.288680e-001  7.381764e-001 
1160000000  6.392646e-001  7.301540e-001 
1165000000  6.494408e-001  7.208570e-001 
1170000000  6.586698e-001  7.121878e-001 
1175000000  6.685243e-001  7.029954e-001 
1180000000  6.793160e-001  6.938064e-001 
1185000000  6.886373e-001  6.841280e-001 
1190000000  6.972574e-001  6.743047e-001 
1195000000  7.064185e-001  6.648430e-001 
1200000000  7.155018e-001  6.549767e-001 
1205000000  7.244036e-001  6.447718e-001 
1210000000  7.338277e-001  6.335765e-001 
1215000000  7.413628e-001  6.237627e-001 
1220000000  7.506284e-001  6.124576e-001 
1225000000  7.582829e-001  6.022309e-001 
1230000000  7.664160e-001  5.910755e-001 
1235000000  7.745618e-001  5.804725e-001 
1240000000  7.827898e-001  5.688505e-001 
1245000000  7.899208e-001  5.580065e-001 
1250000000  7.976876e-001  5.465751e-001 
1255000000  8.046702e-001  5.354052e-001 
1260000000  8.127270e-001  5.233227e-001 
1265000000  8.207313e-001  5.117194e-001 
1270000000  8.272669e-001  5.001611e-001 
1275000000  8.348312e-001  4.874721e-001 
1280000000  8.416187e-001  4.757390e-001 
1285000000  8.487504e-001  4.631799e-001 
1290000000  8.558245e-001  4.505269e-001 
1295000000  8.622673e-001  4.376404e-001 
1300000000  8.695634e-001  4.241447e-001 
1305000000  8.763661e-001  4.100972e-001 
1310000000  8.819692e-001  3.969999e-001 
1315000000  8.878195e-001  3.829561e-001 
1320000000  8.942245e-001  3.688508e-001 
1325000000  8.990892e-001  3.550028e-001 
1330000000  9.056287e-001  3.398591e-001 
1335000000  9.101083e-001  3.255781e-001 
1340000000  9.151266e-001  3.112406e-001 
1345000000  9.200885e-001  2.959542e-001 
1350000000  9.239886e-001  2.813109e-001 
1355000000  9.280048e-001  2.661166e-001 
1360000000  9.319525e-001  2.509358e-001 
1365000000  9.350296e-001  2.360556e-001 
1370000000  9.384960e-001  2.200261e-001 
1375000000  9.419135e-001  2.048000e-001 
1380000000  9.448603e-001  1.893649e-001 
1385000000  9.478493e-001  1.732522e-001 
1390000000  9.494538e-001  1.585413e-001 
1395000000  9.519173e-001  1.419439e-001 
1400000000  9.547160e-001  1.255271e-001 
1405000000  9.554229e-001  1.102214e-001 
1410000000  9.570937e-001  9.327179e-002 
1415000000  9.587082e-001  7.635108e-002 
1420000000  9.587274e-001  6.016998e-002 
1425000000  9.588765e-001  4.396613e-002 
1430000000  9.595928e-001  2.626478e-002 
1435000000  9.592279e-001  9.446036e-003 
1440000000  9.583017e-001  -6.855643e-003 
1445000000  9.568747e-001  -2.398058e-002 
1450000000  9.558008e-001  -4.065492e-002 
1455000000  9.537259e-001  -5.777821e-002 
1460000000  9.519399e-001  -7.433810e-002 
1465000000  9.498720e-001  -9.064015e-002 
1470000000  9.478403e-001  -1.088119e-001 
1475000000  9.450018e-001  -1.252358e-001 
1480000000  9.426985e-001  -1.429790e-001 
1485000000  9.391882e-001  -1.593465e-001 
1490000000  9.356423e-001  -1.774492e-001 
1495000000  9.320796e-001  -1.957355e-001 
1500000000  9.274260e-001  -2.134466e-001 
1505000000  9.222329e-001  -2.299184e-001 
1510000000  9.170096e-001  -2.477334e-001 
1515000000  9.114788e-001  -2.649307e-001 
1520000000  9.054431e-001  -2.823851e-001 
1525000000  8.991280e-001  -2.993559e-001 
1530000000  8.927162e-001  -3.166825e-001 
1535000000  8.860266e-001  -3.338568e-001 
1540000000  8.790882e-001  -3.510338e-001 
1545000000  8.716155e-001  -3.683383e-001 
1550000000  8.632528e-001  -3.862205e-001 
1555000000  8.546477e-001  -4.032534e-001 
1560000000  8.458920e-001  -4.197034e-001 
1565000000  8.365499e-001  -4.366764e-001 
1570000000  8.264107e-001  -4.539316e-001 
1575000000  8.159772e-001  -4.702012e-001 
1580000000  8.052596e-001  -4.855016e-001 
1585000000  7.943769e-001  -5.009853e-001 
1590000000  7.832600e-001  -5.164881e-001 
1595000000  7.718365e-001  -5.315717e-001 
1600000000  7.602639e-001  -5.468867e-001 
1605000000  7.482362e-001  -5.614161e-001 
1610000000  7.352931e-001  -5.760529e-001 
1615000000  7.222259e-001  -5.912398e-001 
1620000000  7.086675e-001  -6.061026e-001 
1625000000  6.947845e-001  -6.200319e-001 
1630000000  6.805935e-001  -6.340117e-001 
1635000000  6.663120e-001  -6.468791e-001 
1640000000  6.513029e-001  -6.602079e-001 
1645000000  6.359847e-001  -6.730613e-001 
1650000000  6.203042e-001  -6.858315e-001 
1655000000  6.037314e-001  -6.990601e-001 
1660000000  5.872716e-001  -7.113941e-001 
1665000000  5.707526e-001  -7.229207e-001 
1670000000  5.539065e-001  -7.341646e-001 
1675000000  5.362879e-001  -7.459684e-001 
1680000000  5.188059e-001  -7.565669e-001 
1685000000  4.994231e-001  -7.679008e-001 
1690000000  4.810646e-001  -7.778401e-001 
1695000000  4.618944e-001  -7.877766e-001 
1700000000  4.423722e-001  -7.972342e-001 
1705000000  4.224015e-001  -8.060060e-001 
1710000000  4.021812e-001  -8.147627e-001 
1715000000  3.812533e-001  -8.226063e-001 
1720000000  3.602133e-001  -8.302829e-001 
1725000000  3.382475e-001  -8.376218e-001 
1730000000  3.171644e-001  -8.433383e-001 
1735000000  2.954477e-001  -8.493379e-001 
1740000000  2.733402e-001  -8.543648e-001 
1745000000  2.504239e-001  -8.586563e-001 
1750000000  2.294362e-001  -8.622994e-001 
1755000000  2.058478e-001  -8.662332e-001 
1760000000  1.836859e-001  -8.675386e-001 
1765000000  1.605306e-001  -8.673614e-001 
1770000000  1.376900e-001  -8.674689e-001 
1775000000  1.152874e-001  -8.681722e-001 
1780000000  9.295974e-002  -8.681470e-001 
1785000000  7.098369e-002  -8.693392e-001 
1790000000  4.879776e-002  -8.698350e-001 
1795000000  2.653320e-002  -8.697141e-001 
1800000000  4.178522e-003  -8.684276e-001 
1805000000  -1.896990e-002  -8.672416e-001 
1810000000  -4.078398e-002  -8.646392e-001 
1815000000  -6.284029e-002  -8.621967e-001 
1820000000  -8.596853e-002  -8.581100e-001 
1825000000  -1.084299e-001  -8.534932e-001 
1830000000  -1.303436e-001  -8.477036e-001 
1835000000  -1.520876e-001  -8.394315e-001 
1840000000  -1.738489e-001  -8.323923e-001 
1845000000  -1.957169e-001  -8.261952e-001 
1850000000  -2.175735e-001  -8.199151e-001 
1855000000  -2.393062e-001  -8.122143e-001 
1860000000  -2.604753e-001  -8.031301e-001 
1865000000  -2.818453e-001  -7.939685e-001 
1870000000  -3.024552e-001  -7.833663e-001 
1875000000  -3.233552e-001  -7.722535e-001 
1880000000  -3.436326e-001  -7.608302e-001 
1885000000  -3.638903e-001  -7.492313e-001 
1890000000  -3.848526e-001  -7.372015e-001 
1895000000  -4.040257e-001  -7.240091e-001 
1900000000  -4.232431e-001  -7.095622e-001 
1905000000  -4.429013e-001  -6.948963e-001 
1910000000  -4.618864e-001  -6.807535e-001 
1915000000  -4.795718e-001  -6.658152e-001 
1920000000  -4.978483e-001  -6.505206e-001 
1925000000  -5.157157e-001  -6.345555e-001 
1930000000  -5.332971e-001  -6.187381e-001 
1935000000  -5.504138e-001  -6.013613e-001 
1940000000  -5.664953e-001  -5.832971e-001 
1945000000  -5.809043e-001  -5.639660e-001 
1950000000  -5.944378e-001  -5.444589e-001 
1955000000  -6.091084e-001  -5.261349e-001 
1960000000  -6.252491e-001  -5.080444e-001 
1965000000  -6.407090e-001  -4.898811e-001 
1970000000  -6.547469e-001  -4.706103e-001 
1975000000  -6.664557e-001  -4.498285e-001 
1980000000  -6.771534e-001  -4.285732e-001 
1985000000  -6.870129e-001  -4.069787e-001 
1990000000  -6.948402e-001  -3.844616e-001 
1995000000  -6.978383e-001  -3.603636e-001 
2000000000  -7.041962e-001  -3.381857e-001 
2005000000  -7.121794e-001  -3.165122e-001 
2010000000  -7.188358e-001  -2.945485e-001 
2015000000  -7.249630e-001  -2.726595e-001 
2020000000  -7.306360e-001  -2.506950e-001 
2025000000  -7.359598e-001  -2.287004e-001 
2030000000  -7.402351e-001  -2.063522e-001 
2035000000  -7.429810e-001  -1.838987e-001 
2040000000  -7.446064e-001  -1.615173e-001 
2045000000  -7.444465e-001  -1.390438e-001 
2050000000  -7.426862e-001  -1.166519e-001 
2055000000  -7.416242e-001  -9.429725e-002 
2060000000  -7.391772e-001  -7.211582e-002 
2065000000  -7.341834e-001  -5.028984e-002 
2070000000  -7.290602e-001  -2.881689e-002 
2075000000  -7.219556e-001  -7.908470e-003 
2080000000  -7.135206e-001  1.216089e-002 
2085000000  -7.039715e-001  3.134195e-002 
2090000000  -6.925450e-001  4.941111e-002 
2095000000  -6.778779e-001  6.517849e-002 
2100000000  -6.594535e-001  7.788929e-002 
2105000000  -6.429433e-001  8.963606e-002 
2110000000  -6.195248e-001  9.369235e-002 
2115000000  -5.665191e-001  6.431870e-002 
2120000000  -5.532414e-001  6.637447e-002 
2125000000  -5.195254e-001  2.889160e-002 
2130000000  -5.105898e-001  1.767865e-002 
2135000000  -5.072356e-001  1.162819e-002 
2140000000  -5.320587e-001  9.333329e-002 
2145000000  -5.401502e-001  1.323357e-001 
2150000000  -5.374376e-001  1.439718e-001 
2155000000  -5.308175e-001  1.366923e-001 
2160000000  -5.271795e-001  1.121369e-001 
2165000000  -5.364220e-001  6.477796e-002 
2170000000  -5.448711e-001  7.074298e-002 
2175000000  -5.481310e-001  9.721462e-002 
2180000000  -5.499285e-001  1.241484e-001 
2185000000  -5.504318e-001  1.514139e-001 
2190000000  -5.492938e-001  1.793065e-001 
2195000000  -5.467801e-001  2.078836e-001 
2200000000  -5.428473e-001  2.359935e-001 
2205000000  -5.367254e-001  2.649564e-001 
2210000000  -5.293071e-001  2.927420e-001 
2215000000  -5.200743e-001  3.208455e-001 
2220000000  -5.092916e-001  3.486908e-001 
2225000000  -4.968551e-001  3.764384e-001 
2230000000  -4.829078e-001  4.038610e-001 
2235000000  -4.668655e-001  4.307874e-001 
2240000000  -4.490972e-001  4.569449e-001 
2245000000  -4.298038e-001  4.825908e-001 
2250000000  -4.086801e-001  5.076813e-001 
2255000000  -3.856534e-001  5.314639e-001 
2260000000  -3.608668e-001  5.545687e-001 
2265000000  -3.348680e-001  5.762073e-001 
2270000000  -3.072108e-001  5.970299e-001 
2275000000  -2.784127e-001  6.155913e-001 
2280000000  -2.476705e-001  6.336737e-001 
2285000000  -2.149944e-001  6.498712e-001 
2290000000  -1.812406e-001  6.637143e-001 
2295000000  -1.464256e-001  6.754084e-001 
2300000000  -1.109639e-001  6.850452e-001 
2305000000  -7.482361e-002  6.931161e-001 
2310000000  -3.450196e-002  6.991141e-001 
2315000000  1.133992e-002  7.021899e-001 
2320000000  5.074358e-002  7.031346e-001 
2325000000  9.013110e-002  7.014903e-001 
2330000000  1.305907e-001  6.968970e-001 
2335000000  1.780678e-001  6.883940e-001 
2340000000  2.206789e-001  6.774105e-001 
2345000000  2.613719e-001  6.637406e-001 
2350000000  2.987218e-001  6.479437e-001 
2355000000  3.352230e-001  6.291711e-001 
2360000000  3.704902e-001  6.068115e-001 
2365000000  4.039048e-001  5.807092e-001 
2370000000  4.344866e-001  5.512772e-001 
2375000000  4.630953e-001  5.184448e-001 
2380000000  4.875119e-001  4.823409e-001 
2385000000  5.070786e-001  4.444188e-001 
2390000000  5.222716e-001  4.051967e-001 
2395000000  5.314624e-001  3.664577e-001 
2400000000  5.349016e-001  3.287772e-001 
2405000000  5.310762e-001  2.930642e-001 
2410000000  5.199111e-001  2.632401e-001 
2415000000  5.050633e-001  2.438326e-001 
2420000000  4.926562e-001  2.351284e-001 
2425000000  4.885068e-001  2.343888e-001 
2430000000  4.960899e-001  2.353839e-001 
2435000000  5.123809e-001  2.316590e-001 
2440000000  5.336590e-001  2.212360e-001 
2445000000  5.578073e-001  2.037169e-001 
2450000000  5.815958e-001  1.784868e-001 
2455000000  6.030957e-001  1.477733e-001 
2460000000  6.221528e-001  1.118964e-001 
2465000000  6.375346e-001  7.152888e-002 
2470000000  6.476939e-001  2.764962e-002 
2475000000  6.524259e-001  -1.851546e-002 
2480000000  6.515972e-001  -6.571677e-002 
2485000000  6.445737e-001  -1.121815e-001 
2490000000  6.335706e-001  -1.553045e-001 
2495000000  6.207476e-001  -1.975996e-001 
2500000000  6.046754e-001  -2.394301e-001 
2505000000  5.861341e-001  -2.805527e-001 
2510000000  5.636592e-001  -3.207059e-001 
2515000000  5.377509e-001  -3.587155e-001 
2520000000  5.090688e-001  -3.947224e-001 
2525000000  4.769092e-001  -4.284578e-001 
2530000000  4.425152e-001  -4.590459e-001 
2535000000  4.062487e-001  -4.871646e-001 
2540000000  3.678403e-001  -5.123743e-001 
2545000000  3.288305e-001  -5.342306e-001 
2550000000  2.887813e-001  -5.536643e-001 
2555000000  2.479746e-001  -5.704275e-001 
2560000000  2.057100e-001  -5.847292e-001 
2565000000  1.625354e-001  -5.949182e-001 
2570000000  1.202336e-001  -6.029879e-001 
2575000000  7.726258e-002  -6.078855e-001 
2580000000  3.514728e-002  -6.105978e-001 
2585000000  -7.915760e-003  -6.104437e-001 
2590000000  -5.016225e-002  -6.074418e-001 
2595000000  -9.241413e-002  -6.020681e-001 
2600000000  -1.336444e-001  -5.933090e-001 
2605000000  -1.727478e-001  -5.826358e-001 
2610000000  -2.106865e-001  -5.706124e-001 
2615000000  -2.478216e-001  -5.566347e-001 
2620000000  -2.838927e-001  -5.407834e-001 
2625000000  -3.185147e-001  -5.231914e-001 
2630000000  -3.514025e-001  -5.040466e-001 
2635000000  -3.824805e-001  -4.833001e-001 
2640000000  -4.133198e-001  -4.622814e-001 
2645000000  -4.435263e-001  -4.390115e-001 
2650000000  -4.708835e-001  -4.137222e-001 
2655000000  -4.957697e-001  -3.879089e-001 
2660000000  -5.186962e-001  -3.618822e-001 
2665000000  -5.412590e-001  -3.352805e-001 
2670000000  -5.624082e-001  -3.073475e-001 
2675000000  -5.818033e-001  -2.788207e-001 
2680000000  -5.991472e-001  -2.499344e-001 
2685000000  -6.143656e-001  -2.215851e-001 
2690000000  -6.286401e-001  -1.933935e-001 
2695000000  -6.416239e-001  -1.646032e-001 
2700000000  -6.534441e-001  -1.353433e-001 
2705000000  -6.642547e-001  -1.064559e-001 
2710000000  -6.740814e-001  -7.625678e-002 
2715000000  -6.825570e-001  -4.562457e-002 
2720000000  -6.890493e-001  -1.456708e-002 
2725000000  -6.927433e-001  1.620236e-002 
2730000000  -6.953102e-001  4.581143e-002 
2735000000  -6.971121e-001  7.544652e-002 
2740000000  -6.972107e-001  1.050006e-001 
2745000000  -6.957529e-001  1.330301e-001 
2750000000  -6.948308e-001  1.622927e-001 
2755000000  -6.923544e-001  1.918494e-001 
2760000000  -6.879751e-001  2.204254e-001 
2765000000  -6.830429e-001  2.497918e-001 
2770000000  -6.765870e-001  2.782939e-001 
2775000000  -6.689338e-001  3.067223e-001 
2780000000  -6.597902e-001  3.353807e-001 
2785000000  -6.483127e-001  3.629686e-001 
2790000000  -6.361348e-001  3.890919e-001 
2795000000  -6.225296e-001  4.137934e-001 
2800000000  -6.073951e-001  4.387520e-001 
2805000000  -5.919856e-001  4.624635e-001 
2810000000  -5.757811e-001  4.864640e-001 
2815000000  -5.578750e-001  5.093446e-001 
2820000000  -5.390127e-001  5.313284e-001 
2825000000  -5.184847e-001  5.527024e-001 
2830000000  -4.968451e-001  5.715066e-001 
2835000000  -4.734810e-001  5.903815e-001 
2840000000  -4.493416e-001  6.066377e-001 
2845000000  -4.249310e-001  6.201440e-001 
2850000000  -3.980299e-001  6.335067e-001 
2855000000  -3.699238e-001  6.445479e-001 
2860000000  -3.422001e-001  6.522166e-001 
2865000000  -3.139296e-001  6.566373e-001 
2870000000  -2.861156e-001  6.588927e-001 
2875000000  -2.576267e-001  6.584429e-001 
2880000000  -2.301894e-001  6.543206e-001 
2885000000  -2.043812e-001  6.464933e-001 
2890000000  -1.801123e-001  6.338040e-001 
2895000000  -1.609480e-001  6.176418e-001 
2900000000  -1.450981e-001  6.011661e-001 
2905000000  -1.333204e-001  5.825002e-001 
2910000000  -1.265630e-001  5.618258e-001 
2915000000  -1.278541e-001  5.411233e-001 
2920000000  -1.351252e-001  5.241886e-001 
2925000000  -1.472867e-001  5.124659e-001 
2930000000  -1.625238e-001  5.074840e-001 
2935000000  -1.782367e-001  5.108256e-001 
2940000000  -1.912549e-001  5.197808e-001 
2945000000  -1.997612e-001  5.340541e-001 
2950000000  -2.047689e-001  5.513294e-001 
2955000000  -2.034858e-001  5.705458e-001 
2960000000  -1.986675e-001  5.886433e-001 
2965000000  -1.904766e-001  6.072119e-001 
2970000000  -1.778257e-001  6.251162e-001 
2975000000  -1.611931e-001  6.405643e-001 
2980000000  -1.399646e-001  6.527020e-001 
2985000000  -1.171323e-001  6.605430e-001 
2990000000  -9.251022e-002  6.628940e-001 
2995000000  -6.689038e-002  6.608266e-001 
3000000000  -4.315558e-002  6.537171e-001 
3005000000  -2.112570e-002  6.408896e-001 
3010000000  -4.217934e-003  6.232951e-001 
3015000000  6.802534e-003  6.036398e-001 
3020000000  1.315299e-002  5.835681e-001 
3025000000  1.532723e-002  5.618709e-001 
3030000000  1.136156e-002  5.403062e-001 
3035000000  2.544736e-003  5.209911e-001 
3040000000  -1.012689e-002  5.011940e-001 
3045000000  -3.080828e-002  4.849516e-001 
3050000000  -5.628903e-002  4.752097e-001 
3055000000  -8.517441e-002  4.730242e-001 
3060000000  -1.131995e-001  4.768361e-001 
3065000000  -1.426311e-001  4.862509e-001 
3070000000  -1.713796e-001  5.023281e-001 
3075000000  -1.973028e-001  5.243384e-001 
3080000000  -2.206346e-001  5.498778e-001 
3085000000  -2.398221e-001  5.783392e-001 
3090000000  -2.570633e-001  6.113549e-001 
3095000000  -2.682510e-001  6.474747e-001 
3100000000  -2.760750e-001  6.878271e-001 
3105000000  -2.796012e-001  7.310966e-001 
3110000000  -2.790478e-001  7.773085e-001 
3115000000  -2.742415e-001  8.231548e-001 
3120000000  -2.609366e-001  8.661799e-001 
3125000000  -2.436274e-001  9.080962e-001 
3130000000  -2.196110e-001  9.474357e-001 
3135000000  -1.913890e-001  9.833729e-001 
3140000000  -1.587260e-001  1.014325e+000 
3145000000  -1.284189e-001  1.046235e+000 
3150000000  -9.392980e-002  1.075109e+000 
3155000000  -6.043219e-002  1.105867e+000 
3160000000  -2.727390e-002  1.138832e+000 
3165000000  1.316466e-002  1.164951e+000 
3170000000  5.507733e-002  1.192041e+000 
3175000000  1.003924e-001  1.211583e+000 
3180000000  1.473697e-001  1.227707e+000 
3185000000  1.957579e-001  1.235441e+000 
3190000000  2.429576e-001  1.239379e+000 
3195000000  2.886631e-001  1.240136e+000 
3200000000  3.373662e-001  1.239830e+000 
3205000000  3.831119e-001  1.235794e+000 
3210000000  4.292581e-001  1.228293e+000 
3215000000  4.664281e-001  1.199946e+000 
3220000000  5.061515e-001  1.182654e+000 
3225000000  5.465872e-001  1.170129e+000 
3230000000  5.897865e-001  1.160981e+000 
3235000000  6.343392e-001  1.150818e+000 
3240000000  6.724052e-001  1.130942e+000 
3245000000  7.053089e-001  1.108027e+000 
3250000000  7.365443e-001  1.080332e+000 
3255000000  7.688528e-001  1.056489e+000 
3260000000  7.984657e-001  1.031086e+000 
3265000000  8.263156e-001  1.005025e+000 
3270000000  8.530511e-001  9.783046e-001 
3275000000  8.778965e-001  9.509239e-001 
3280000000  9.009649e-001  9.229855e-001 
3285000000  9.214718e-001  8.941115e-001 
3290000000  9.407413e-001  8.655423e-001 
3295000000  9.603025e-001  8.373607e-001 
3300000000  9.809391e-001  8.079448e-001 
3305000000  9.928860e-001  7.783253e-001 
3310000000  1.004209e+000  7.481710e-001 
3315000000  1.014513e+000  7.190990e-001 
3320000000  1.023823e+000  6.905372e-001 
3325000000  1.032564e+000  6.628075e-001 
3330000000  1.040219e+000  6.355277e-001 
3335000000  1.046698e+000  6.085681e-001 
3340000000  1.052275e+000  5.821202e-001 
3345000000  1.056925e+000  5.559081e-001 
3350000000  1.059408e+000  5.297160e-001 
3355000000  1.061660e+000  5.051107e-001 
3360000000  1.064044e+000  4.807863e-001 
3365000000  1.065647e+000  4.569727e-001 
3370000000  1.066373e+000  4.340494e-001 
3375000000  1.066116e+000  4.112440e-001 
3380000000  1.065060e+000  3.888855e-001 
3385000000  1.063361e+000  3.679281e-001 
3390000000  1.061276e+000  3.481883e-001 
3395000000  1.060392e+000  3.285030e-001 
3400000000  1.060200e+000  3.060877e-001 
3405000000  1.056773e+000  2.899517e-001 
3410000000  1.053680e+000  2.721764e-001 
3415000000  1.050636e+000  2.548192e-001 
3420000000  1.047255e+000  2.368444e-001 
3425000000  1.043462e+000  2.197232e-001 
3430000000  1.039478e+000  2.029463e-001 
3435000000  1.035094e+000  1.865999e-001 
3440000000  1.030011e+000  1.711704e-001 
3445000000  1.025813e+000  1.561105e-001 
3450000000  1.021170e+000  1.416639e-001 
3455000000  1.016523e+000  1.274832e-001 
3460000000  1.012021e+000  1.136743e-001 
3465000000  1.007332e+000  9.963301e-002 
3470000000  1.002342e+000  8.718633e-002 
3475000000  9.974350e-001  7.429259e-002 
3480000000  9.933236e-001  6.217727e-002 
3485000000  9.890670e-001  4.970377e-002 
3490000000  9.846539e-001  3.745332e-002 
3495000000  9.799138e-001  2.521722e-002 
3500000000  9.752247e-001  1.337501e-002 
3505000000  9.703086e-001  1.745208e-003 
3510000000  9.657014e-001  -9.404047e-003 
3515000000  9.610248e-001  -2.018941e-002 
3520000000  9.562984e-001  -3.073731e-002 
3525000000  9.522907e-001  -4.146853e-002 
3530000000  9.479943e-001  -5.187339e-002 
3535000000  9.440753e-001  -6.195166e-002 
3540000000  9.403765e-001  -7.203996e-002 
3545000000  9.363676e-001  -8.249715e-002 
3550000000  9.321054e-001  -9.197778e-002 
3555000000  9.282834e-001  -1.012374e-001 
3560000000  9.242527e-001  -1.105053e-001 
3565000000  9.202306e-001  -1.197708e-001 
3570000000  9.165471e-001  -1.287098e-001 
3575000000  9.120814e-001  -1.381175e-001 
3580000000  9.077473e-001  -1.469641e-001 
3585000000  9.036391e-001  -1.558733e-001 
3590000000  8.996499e-001  -1.646341e-001 
3595000000  8.955162e-001  -1.735025e-001 
3600000000  8.913199e-001  -1.820401e-001 
3605000000  8.866674e-001  -1.904593e-001 
3610000000  8.824637e-001  -1.988921e-001 
3615000000  8.784104e-001  -2.077888e-001 
3620000000  8.740515e-001  -2.161244e-001 
3625000000  8.702629e-001  -2.244744e-001 
3630000000  8.651683e-001  -2.331557e-001 
3635000000  8.603703e-001  -2.410829e-001 
3640000000  8.552999e-001  -2.492861e-001 
3645000000  8.506081e-001  -2.573012e-001 
3650000000  8.456303e-001  -2.655629e-001 
3655000000  8.409442e-001  -2.726668e-001 
3660000000  8.362847e-001  -2.801235e-001 
3665000000  8.314204e-001  -2.884375e-001 
3670000000  8.265130e-001  -2.956861e-001 
3675000000  8.210225e-001  -3.033248e-001 
3680000000  8.158252e-001  -3.111302e-001 
3685000000  8.104763e-001  -3.189940e-001 
3690000000  8.046332e-001  -3.268136e-001 
3695000000  7.988157e-001  -3.346074e-001 
3700000000  7.931090e-001  -3.420872e-001 
3705000000  7.877433e-001  -3.502448e-001 
3710000000  7.819953e-001  -3.581887e-001 
3715000000  7.760989e-001  -3.660537e-001 
3720000000  7.700914e-001  -3.733979e-001 
3725000000  7.646748e-001  -3.815192e-001 
3730000000  7.582560e-001  -3.895259e-001 
3735000000  7.519147e-001  -3.975503e-001 
3740000000  7.457581e-001  -4.054361e-001 
3745000000  7.393944e-001  -4.131995e-001 
3750000000  7.329623e-001  -4.211120e-001 
3755000000  7.263862e-001  -4.292861e-001 
3760000000  7.193818e-001  -4.378008e-001 
3765000000  7.125337e-001  -4.455499e-001 
3770000000  7.052441e-001  -4.537670e-001 
3775000000  6.978105e-001  -4.618878e-001 
3780000000  6.899127e-001  -4.701029e-001 
3785000000  6.821926e-001  -4.782801e-001 
3790000000  6.736718e-001  -4.859144e-001 
3795000000  6.653984e-001  -4.944720e-001 
3800000000  6.569867e-001  -5.027940e-001 
3805000000  6.478150e-001  -5.110720e-001 
3810000000  6.385153e-001  -5.190896e-001 
3815000000  6.288636e-001  -5.264614e-001 
3820000000  6.186683e-001  -5.346531e-001 
3825000000  6.081977e-001  -5.416856e-001 
3830000000  5.973063e-001  -5.494120e-001 
3835000000  5.858007e-001  -5.564023e-001 
3840000000  5.737347e-001  -5.624174e-001 
3845000000  5.610364e-001  -5.690317e-001 
3850000000  5.480161e-001  -5.744106e-001 
3855000000  5.342942e-001  -5.794356e-001 
3860000000  5.199805e-001  -5.836353e-001 
3865000000  5.052023e-001  -5.869549e-001 
3870000000  4.898669e-001  -5.892816e-001 
3875000000  4.745162e-001  -5.905896e-001 
3880000000  4.590371e-001  -5.904984e-001 
3885000000  4.442666e-001  -5.895516e-001 
3890000000  4.290092e-001  -5.881281e-001 
3895000000  4.149307e-001  -5.854630e-001 
3900000000  4.010336e-001  -5.827796e-001 
3905000000  3.871765e-001  -5.803596e-001 
3910000000  3.723144e-001  -5.773656e-001 
3915000000  3.562756e-001  -5.738936e-001 
3920000000  3.389838e-001  -5.693622e-001 
3925000000  3.209829e-001  -5.624282e-001 
3930000000  3.017529e-001  -5.532553e-001 
3935000000  2.830043e-001  -5.405825e-001 
3940000000  2.644785e-001  -5.245478e-001 
3945000000  2.477517e-001  -5.050339e-001 
3950000000  2.334288e-001  -4.824729e-001 
3955000000  2.218434e-001  -4.569516e-001 
3960000000  2.144573e-001  -4.288228e-001 
3965000000  2.120387e-001  -3.987522e-001 
3970000000  2.151128e-001  -3.682405e-001 
3975000000  2.241122e-001  -3.380325e-001 
3980000000  2.395549e-001  -3.104263e-001 
3985000000  2.597806e-001  -2.872282e-001 
3990000000  2.834496e-001  -2.692538e-001 
3995000000  3.089446e-001  -2.566076e-001 
4000000000  3.359622e-001  -2.480894e-001 
4005000000  3.633362e-001  -2.451282e-001 
4010000000  3.897859e-001  -2.477335e-001 
4015000000  4.138757e-001  -2.542231e-001 
4020000000  4.358783e-001  -2.637139e-001 
4025000000  4.550475e-001  -2.760198e-001 
4030000000  4.712791e-001  -2.903904e-001 
4035000000  4.842197e-001  -3.054615e-001 
4040000000  4.958715e-001  -3.207404e-001 
4045000000  5.050895e-001  -3.372406e-001 
4050000000  5.127535e-001  -3.527487e-001 
4055000000  5.190324e-001  -3.699989e-001 
4060000000  5.226597e-001  -3.863977e-001 
4065000000  5.255040e-001  -4.022231e-001 
4070000000  5.272006e-001  -4.182015e-001 
4075000000  5.278857e-001  -4.336949e-001 
4080000000  5.274400e-001  -4.489263e-001 
4085000000  5.259800e-001  -4.643484e-001 
4090000000  5.232660e-001  -4.791209e-001 
4095000000  5.202378e-001  -4.914439e-001 
4100000000  5.174985e-001  -5.048714e-001 
4105000000  5.137600e-001  -5.176497e-001 
4110000000  5.095996e-001  -5.293703e-001 
4115000000  5.054159e-001  -5.411982e-001 
4120000000  5.013254e-001  -5.528342e-001 
4125000000  4.965507e-001  -5.647712e-001 
4130000000  4.912441e-001  -5.762982e-001 
4135000000  4.851471e-001  -5.874031e-001 
4140000000  4.785414e-001  -5.979234e-001 
4145000000  4.716766e-001  -6.077343e-001 
4150000000  4.641051e-001  -6.185158e-001 
4155000000  4.564025e-001  -6.277092e-001 
4160000000  4.480284e-001  -6.370173e-001 
4165000000  4.399302e-001  -6.451766e-001 
4170000000  4.320413e-001  -6.535565e-001 
4175000000  4.233373e-001  -6.615989e-001 
4180000000  4.140520e-001  -6.703226e-001 
4185000000  4.046917e-001  -6.779357e-001 
4190000000  3.951811e-001  -6.854131e-001 
4195000000  3.858120e-001  -6.922833e-001 
4200000000  3.755507e-001  -6.999298e-001 
4205000000  3.661526e-001  -7.061878e-001 
4210000000  3.555162e-001  -7.125220e-001 
4215000000  3.446501e-001  -7.189244e-001 
4220000000  3.336353e-001  -7.250248e-001 
4225000000  3.225611e-001  -7.303417e-001 
4230000000  3.118023e-001  -7.344576e-001 
4235000000  3.009646e-001  -7.396592e-001 
4240000000  2.899857e-001  -7.445775e-001 
4245000000  2.791205e-001  -7.485475e-001 
4250000000  2.680867e-001  -7.525972e-001 
4255000000  2.570015e-001  -7.568163e-001 
4260000000  2.450283e-001  -7.614275e-001 
4265000000  2.333587e-001  -7.648504e-001 
4270000000  2.228578e-001  -7.671842e-001 
4275000000  2.107400e-001  -7.709107e-001 
4280000000  2.008474e-001  -7.731828e-001 
4285000000  1.892189e-001  -7.763806e-001 
4290000000  1.784262e-001  -7.787003e-001 
4295000000  1.677937e-001  -7.808231e-001 
4300000000  1.564914e-001  -7.828023e-001 
4305000000  1.456060e-001  -7.845330e-001 
4310000000  1.354009e-001  -7.850811e-001 
4315000000  1.247202e-001  -7.864705e-001 
4320000000  1.148788e-001  -7.868751e-001 
4325000000  1.045314e-001  -7.875553e-001 
4330000000  9.536863e-002  -7.874228e-001 
4335000000  8.492739e-002  -7.885147e-001 
4340000000  7.431789e-002  -7.893265e-001 
4345000000  6.262530e-002  -7.901808e-001 
4350000000  5.207103e-002  -7.900373e-001 
4355000000  4.183751e-002  -7.895702e-001 
4360000000  3.108947e-002  -7.893158e-001 
4365000000  1.980509e-002  -7.891999e-001 
4370000000  9.376573e-003  -7.882497e-001 
4375000000  -1.574283e-003  -7.872410e-001 
4380000000  -1.285735e-002  -7.864822e-001 
4385000000  -2.408308e-002  -7.855508e-001 
4390000000  -3.623921e-002  -7.842702e-001 
4395000000  -4.718513e-002  -7.823313e-001 
4400000000  -5.926334e-002  -7.804172e-001 
4405000000  -7.192068e-002  -7.784584e-001 
4410000000  -8.514556e-002  -7.760046e-001 
4415000000  -9.828953e-002  -7.732474e-001 
4420000000  -1.107231e-001  -7.706057e-001 
4425000000  -1.233016e-001  -7.675101e-001 
4430000000  -1.349948e-001  -7.639546e-001 
4435000000  -1.460563e-001  -7.596242e-001 
4440000000  -1.593316e-001  -7.554182e-001 
4445000000  -1.722968e-001  -7.509739e-001 
4450000000  -1.872851e-001  -7.457605e-001 
4455000000  -2.027478e-001  -7.399337e-001 
4460000000  -2.177569e-001  -7.346030e-001 
4465000000  -2.322632e-001  -7.284666e-001 
4470000000  -2.458479e-001  -7.221971e-001 
4475000000  -2.592152e-001  -7.150697e-001 
4480000000  -2.727028e-001  -7.074099e-001 
4485000000  -2.883078e-001  -6.986653e-001 
4490000000  -3.031692e-001  -6.891667e-001 
4495000000  -3.174208e-001  -6.798216e-001 
4500000000  -3.308632e-001  -6.697678e-001 
4505000000  -3.443026e-001  -6.587421e-001 
4510000000  -3.576159e-001  -6.475255e-001 
4515000000  -3.704459e-001  -6.358122e-001 
4520000000  -3.822071e-001  -6.237096e-001 
4525000000  -3.933486e-001  -6.113573e-001 
4530000000  -4.036656e-001  -5.982682e-001 
4535000000  -4.141726e-001  -5.842425e-001 
4540000000  -4.245690e-001  -5.698282e-001 
4545000000  -4.344278e-001  -5.550060e-001 
4550000000  -4.436106e-001  -5.394163e-001 
4555000000  -4.519669e-001  -5.234230e-001 
4560000000  -4.589669e-001  -5.073020e-001 
4565000000  -4.660300e-001  -4.900838e-001 
4570000000  -4.719676e-001  -4.726117e-001 
4575000000  -4.778867e-001  -4.537071e-001 
4580000000  -4.842919e-001  -4.333422e-001 
4585000000  -4.897546e-001  -4.117402e-001 
4590000000  -4.938749e-001  -3.902156e-001 
4595000000  -4.972336e-001  -3.678303e-001 
4600000000  -4.982465e-001  -3.462317e-001 
4605000000  -4.985427e-001  -3.249932e-001 
4610000000  -4.989997e-001  -3.025387e-001 
4615000000  -4.981987e-001  -2.774798e-001 
4620000000  -4.956856e-001  -2.525707e-001 
4625000000  -4.919960e-001  -2.267805e-001 
4630000000  -4.868925e-001  -2.014871e-001 
4635000000  -4.805904e-001  -1.763440e-001 
4640000000  -4.725343e-001  -1.498000e-001 
4645000000  -4.619516e-001  -1.200085e-001 
4650000000  -4.487029e-001  -9.004363e-002 
4655000000  -4.342802e-001  -6.333332e-002 
4660000000  -4.179886e-001  -3.789917e-002 
4665000000  -3.993412e-001  -1.317881e-002 
4670000000  -3.788576e-001  1.147124e-002 
4675000000  -3.540715e-001  3.675389e-002 
4680000000  -3.271385e-001  5.914373e-002 
4685000000  -2.988325e-001  7.887664e-002 
4690000000  -2.687060e-001  9.725384e-002 
4695000000  -2.383509e-001  1.107397e-001 
4700000000  -2.034021e-001  1.255224e-001 
4705000000  -1.674959e-001  1.368238e-001 
4710000000  -1.320817e-001  1.435664e-001 
4715000000  -9.651712e-002  1.455309e-001 
4720000000  -6.138413e-002  1.455511e-001 
4725000000  -2.552265e-002  1.429586e-001 
4730000000  9.320098e-003  1.366609e-001 
4735000000  4.341948e-002  1.266476e-001 
4740000000  7.515354e-002  1.131601e-001 
4745000000  1.066037e-001  9.862775e-002 
4750000000  1.370497e-001  8.065966e-002 
4755000000  1.650124e-001  5.958639e-002 
4760000000  1.911299e-001  3.621705e-002 
4765000000  2.149045e-001  1.175251e-002 
4770000000  2.363935e-001  -1.437606e-002 
4775000000  2.550715e-001  -4.139060e-002 
4780000000  2.714084e-001  -6.920258e-002 
4785000000  2.854089e-001  -9.786409e-002 
4790000000  2.968633e-001  -1.268729e-001 
4795000000  3.056392e-001  -1.556167e-001 
4800000000  3.134532e-001  -1.838929e-001 
4805000000  3.189096e-001  -2.135432e-001 
4810000000  3.219620e-001  -2.427865e-001 
4815000000  3.220532e-001  -2.716066e-001 
4820000000  3.203203e-001  -2.987739e-001 
4825000000  3.170667e-001  -3.245600e-001 
4830000000  3.123507e-001  -3.499771e-001 
4835000000  3.060427e-001  -3.746464e-001 
4840000000  2.987065e-001  -3.982969e-001 
4845000000  2.898170e-001  -4.211413e-001 
4850000000  2.800143e-001  -4.420402e-001 
4855000000  2.697104e-001  -4.618345e-001 
4860000000  2.584898e-001  -4.802063e-001 
4865000000  2.462254e-001  -4.982680e-001 
4870000000  2.329700e-001  -5.142887e-001 
4875000000  2.194166e-001  -5.293015e-001 
4880000000  2.067704e-001  -5.434020e-001 
4885000000  1.922048e-001  -5.574987e-001 
4890000000  1.779794e-001  -5.694112e-001 
4895000000  1.637474e-001  -5.815929e-001 
4900000000  1.490667e-001  -5.926703e-001 
4905000000  1.342045e-001  -6.027697e-001 
4910000000  1.200969e-001  -6.115760e-001 
4915000000  1.056871e-001  -6.207169e-001 
4920000000  9.160817e-002  -6.282172e-001 
4925000000  7.770946e-002  -6.355590e-001 
4930000000  6.461106e-002  -6.418138e-001 
4935000000  5.057815e-002  -6.474450e-001 
4940000000  3.807464e-002  -6.547427e-001 
4945000000  2.611791e-002  -6.602513e-001 
4950000000  1.302991e-002  -6.660576e-001 
4955000000  -1.369161e-003  -6.706672e-001 
4960000000  -1.512166e-002  -6.732988e-001 
4965000000  -2.818562e-002  -6.765584e-001 
4970000000  -4.137116e-002  -6.801413e-001 
4975000000  -5.311398e-002  -6.834227e-001 
4980000000  -6.595278e-002  -6.867975e-001 
4985000000  -7.889543e-002  -6.893367e-001 
4990000000  -9.089079e-002  -6.913738e-001 
4995000000  -1.025990e-001  -6.941705e-001 
5000000000  -1.162294e-001  -6.966770e-001 
5005000000  -1.283191e-001  -6.975661e-001 
5010000000  -1.411529e-001  -6.984775e-001 
5015000000  -1.536561e-001  -6.988518e-001 
5020000000  -1.662165e-001  -6.990270e-001 
5025000000  -1.792997e-001  -6.982529e-001 
5030000000  -1.914011e-001  -6.974577e-001 
5035000000  -2.042995e-001  -6.970806e-001 
5040000000  -2.162680e-001  -6.974329e-001 
5045000000  -2.284868e-001  -6.969958e-001 
5050000000  -2.413981e-001  -6.942079e-001 
5055000000  -2.542378e-001  -6.909567e-001 
5060000000  -2.668426e-001  -6.868693e-001 
5065000000  -2.783507e-001  -6.827320e-001 
5070000000  -2.903813e-001  -6.787565e-001 
5075000000  -3.024440e-001  -6.745271e-001 
5080000000  -3.143138e-001  -6.702672e-001 
5085000000  -3.264014e-001  -6.657360e-001 
5090000000  -3.383603e-001  -6.601737e-001 
5095000000  -3.502976e-001  -6.534892e-001 
5100000000  -3.616558e-001  -6.470470e-001 
5105000000  -3.728451e-001  -6.412204e-001 
5110000000  -3.842340e-001  -6.344988e-001 
5115000000  -3.951463e-001  -6.273297e-001 
5120000000  -4.058409e-001  -6.196552e-001 
5125000000  -4.164594e-001  -6.116613e-001 
5130000000  -4.259809e-001  -6.037162e-001 
5135000000  -4.350080e-001  -5.949802e-001 
5140000000  -4.441198e-001  -5.852300e-001 
5145000000  -4.519054e-001  -5.760825e-001 
5150000000  -4.588071e-001  -5.674394e-001 
5155000000  -4.662171e-001  -5.589116e-001 
5160000000  -4.729511e-001  -5.503486e-001 
5165000000  -4.788793e-001  -5.422586e-001 
5170000000  -4.847381e-001  -5.352401e-001 
5175000000  -4.898840e-001  -5.294459e-001 
5180000000  -4.948678e-001  -5.252685e-001 
5185000000  -5.005030e-001  -5.207472e-001 
5190000000  -5.063303e-001  -5.158021e-001 
5195000000  -5.118399e-001  -5.110282e-001 
5200000000  -5.180858e-001  -5.069870e-001 
5205000000  -5.244654e-001  -5.025343e-001 
5210000000  -5.315948e-001  -4.967047e-001 
5215000000  -5.394815e-001  -4.923081e-001 
5220000000  -5.477686e-001  -4.871995e-001 
5225000000  -5.560442e-001  -4.812706e-001 
5230000000  -5.645888e-001  -4.754996e-001 
5235000000  -5.728868e-001  -4.691771e-001 
5240000000  -5.815933e-001  -4.629651e-001 
5245000000  -5.903366e-001  -4.564845e-001 
5250000000  -5.987071e-001  -4.489790e-001 
5255000000  -6.072502e-001  -4.410504e-001 
5260000000  -6.147341e-001  -4.332576e-001 
5265000000  -6.264565e-001  -3.787396e-001 
5270000000  -6.336499e-001  -3.683134e-001 
5275000000  -6.402710e-001  -3.586664e-001 
5280000000  -6.471072e-001  -3.475566e-001 
5285000000  -6.541674e-001  -3.356276e-001 
5290000000  -6.614178e-001  -3.224475e-001 
5295000000  -6.675408e-001  -3.100501e-001 
5300000000  -6.731014e-001  -2.981150e-001 
5305000000  -6.793876e-001  -2.849810e-001 
5310000000  -6.844279e-001  -2.724944e-001 
5315000000  -6.893142e-001  -2.600188e-001 
5320000000  -6.940737e-001  -2.480390e-001 
5325000000  -6.980254e-001  -2.364824e-001 
5330000000  -7.029707e-001  -2.222892e-001 
5335000000  -7.072594e-001  -2.074837e-001 
5340000000  -7.111890e-001  -1.922196e-001 
5345000000  -7.143230e-001  -1.776470e-001 
5350000000  -7.171081e-001  -1.634366e-001 
5355000000  -7.195552e-001  -1.498088e-001 
5360000000  -7.214304e-001  -1.363519e-001 
5365000000  -7.231790e-001  -1.222859e-001 
5370000000  -7.248030e-001  -1.066883e-001 
5375000000  -7.259833e-001  -9.085324e-002 
5380000000  -7.265993e-001  -7.528847e-002 
5385000000  -7.270377e-001  -6.010040e-002 
5390000000  -7.266777e-001  -4.488010e-002 
5395000000  -7.260256e-001  -2.944643e-002 
5400000000  -7.245847e-001  -1.486732e-002 
5405000000  -7.228692e-001  -2.442437e-004 
5410000000  -7.208045e-001  1.379131e-002 
5415000000  -7.183665e-001  2.872826e-002 
5420000000  -7.153324e-001  4.316869e-002 
5425000000  -7.119466e-001  5.759032e-002 
5430000000  -7.083088e-001  7.211862e-002 
5435000000  -7.041215e-001  8.646327e-002 
5440000000  -6.994415e-001  1.007275e-001 
5445000000  -6.939715e-001  1.148725e-001 
5450000000  -6.881335e-001  1.286032e-001 
5455000000  -6.818031e-001  1.424985e-001 
5460000000  -6.748156e-001  1.566054e-001 
5465000000  -6.672369e-001  1.705874e-001 
5470000000  -6.589101e-001  1.845108e-001 
5475000000  -6.498742e-001  1.980246e-001 
5480000000  -6.400682e-001  2.121779e-001 
5485000000  -6.300940e-001  2.268826e-001 
5490000000  -6.195349e-001  2.410945e-001 
5495000000  -6.083726e-001  2.551867e-001 
5500000000  -5.966926e-001  2.689795e-001 
5505000000  -5.840749e-001  2.825245e-001 
5510000000  -5.709201e-001  2.957621e-001 
5515000000  -5.572027e-001  3.089074e-001 
5520000000  -5.429392e-001  3.219787e-001 
5525000000  -5.279045e-001  3.347695e-001 
5530000000  -5.120693e-001  3.460813e-001 
5535000000  -4.956156e-001  3.573610e-001 
5540000000  -4.785256e-001  3.678181e-001 
5545000000  -4.607987e-001  3.777059e-001 
5550000000  -4.426744e-001  3.866839e-001 
5555000000  -4.238006e-001  3.953809e-001 
5560000000  -4.044950e-001  4.030770e-001 
5565000000  -3.845126e-001  4.095473e-001 
5570000000  -3.641357e-001  4.147665e-001 
5575000000  -3.437962e-001  4.185318e-001 
5580000000  -3.233820e-001  4.213669e-001 
5585000000  -3.026203e-001  4.236740e-001 
5590000000  -2.816994e-001  4.238498e-001 
5595000000  -2.608223e-001  4.227582e-001 
5600000000  -2.394986e-001  4.204375e-001 
5605000000  -2.186197e-001  4.157180e-001 
5610000000  -1.985067e-001  4.096690e-001 
5615000000  -1.788832e-001  4.020232e-001 
5620000000  -1.603160e-001  3.927967e-001 
5625000000  -1.423673e-001  3.823911e-001 
5630000000  -1.256737e-001  3.706543e-001 
5635000000  -1.098831e-001  3.579136e-001 
5640000000  -9.466553e-002  3.440002e-001 
5645000000  -8.055111e-002  3.286269e-001 
5650000000  -6.811798e-002  3.123130e-001 
5655000000  -5.671283e-002  2.956913e-001 
5660000000  -4.618134e-002  2.780441e-001 
5665000000  -3.711786e-002  2.599972e-001 
5670000000  -2.905546e-002  2.415891e-001 
5675000000  -2.229356e-002  2.227360e-001 
5680000000  -1.663866e-002  2.035920e-001 
5685000000  -1.216024e-002  1.843893e-001 
5690000000  -8.513431e-003  1.649330e-001 
5695000000  -6.489369e-003  1.450385e-001 
5700000000  -5.570579e-003  1.252625e-001 
5705000000  -6.087460e-003  1.054348e-001 
5710000000  -7.495939e-003  8.540647e-002 
5715000000  -1.065183e-002  6.465875e-002 
5720000000  -1.621811e-002  4.402646e-002 
5725000000  -2.376814e-002  2.399708e-002 
5730000000  -3.338882e-002  4.890984e-003 
5735000000  -4.490507e-002  -1.324521e-002 
5740000000  -5.819001e-002  -2.995593e-002 
5745000000  -7.297962e-002  -4.553485e-002 
5750000000  -8.978711e-002  -5.990876e-002 
5755000000  -1.085069e-001  -7.168386e-002 
5760000000  -1.282656e-001  -8.124356e-002 
5765000000  -1.498420e-001  -8.876864e-002 
5770000000  -1.723801e-001  -9.291738e-002 
5775000000  -1.950475e-001  -9.371500e-002 
5780000000  -2.172774e-001  -9.159949e-002 
5785000000  -2.386324e-001  -8.708961e-002 
5790000000  -2.592927e-001  -8.075216e-002 
5795000000  -2.793147e-001  -7.254675e-002 
5800000000  -2.985286e-001  -6.236131e-002 
5805000000  -3.166348e-001  -5.024989e-002 
5810000000  -3.335516e-001  -3.666257e-002 
5815000000  -3.489425e-001  -2.198179e-002 
5820000000  -3.627894e-001  -6.644969e-003 
5825000000  -3.756061e-001  9.838412e-003 
5830000000  -3.869716e-001  2.692824e-002 
5835000000  -3.965656e-001  4.497454e-002 
5840000000  -4.046370e-001  6.286496e-002 
5845000000  -4.113973e-001  8.142250e-002 
5850000000  -4.163986e-001  9.981394e-002 
5855000000  -4.199018e-001  1.174802e-001 
5860000000  -4.226950e-001  1.347098e-001 
5865000000  -4.245559e-001  1.518143e-001 
5870000000  -4.252248e-001  1.692111e-001 
5875000000  -4.247007e-001  1.862536e-001 
5880000000  -4.230223e-001  2.025986e-001 
5885000000  -4.203757e-001  2.184720e-001 
5890000000  -4.167384e-001  2.336013e-001 
5895000000  -4.125682e-001  2.481376e-001 
5900000000  -4.076668e-001  2.622479e-001 
5905000000  -4.019080e-001  2.752952e-001 
5910000000  -3.958943e-001  2.881584e-001 
5915000000  -3.896198e-001  3.004346e-001 
5920000000  -3.822886e-001  3.125629e-001 
5925000000  -3.740745e-001  3.238048e-001 
5930000000  -3.655075e-001  3.340710e-001 
5935000000  -3.568237e-001  3.440505e-001 
5940000000  -3.480940e-001  3.539897e-001 
5945000000  -3.388579e-001  3.636219e-001 
5950000000  -3.293048e-001  3.731888e-001 
5955000000  -3.196380e-001  3.823479e-001 
5960000000  -3.096374e-001  3.918191e-001 
5965000000  -2.990329e-001  4.010627e-001 
5970000000  -2.879781e-001  4.100522e-001 
5975000000  -2.762590e-001  4.188557e-001 
5980000000  -2.646789e-001  4.270212e-001 
5985000000  -2.530925e-001  4.352539e-001 
5990000000  -2.408307e-001  4.438388e-001 
5995000000  -2.284087e-001  4.517807e-001 
6000000000  -2.162067e-001  4.597280e-001 
