!Agilent Technologies,E8364B,MY43040633,A.07.50.37
!Agilent E8364B: A.07.50.37
!Date: Tuesday, December 16, 2025 17:05:50
!Correction: S11(Full 1 Port(1)) 
!S1P File: Measurement: S11:
# Hz S  RI   R 50
1000000000  3.730806e-001  9.059382e-001 
1005000000  3.822917e-001  9.012503e-001 
1010000000  3.921748e-001  8.974799e-001 
1015000000  4.019923e-001  8.924222e-001 
1020000000  4.113450e-001  8.879781e-001 
1025000000  4.206274e-001  8.827851e-001 
1030000000  4.299260e-001  8.775602e-001 
1035000000  4.391673e-001  8.727757e-001 
1040000000  4.482867e-001  8.680443e-001 
1045000000  4.569625e-001  8.630078e-001 
1050000000  4.662252e-001  8.582121e-001 
1055000000  4.758413e-001  8.522966e-001 
1060000000  4.856014e-001  8.476309e-001 
1065000000  4.935164e-001  8.422663e-001 
1070000000  5.032995e-001  8.371665e-001 
1075000000  5.125098e-001  8.321367e-001 
1080000000  5.217556e-001  8.259519e-001 
1085000000  5.308376e-001  8.202380e-001 
1090000000  5.395515e-001  8.140863e-001 
1095000000  5.490071e-001  8.073444e-001 
1100000000  5.569480e-001  8.012308e-001 
1105000000  5.655208e-001  7.951553e-001 
1110000000  5.743232e-001  7.887957e-001 
1115000000  5.821408e-001  7.825729e-001 
1120000000  5.898645e-001  7.759594e-001 
1125000000  5.982782e-001  7.695335e-001 
1130000000  6.056994e-001  7.623795e-001 
1135000000  6.139424e-001  7.559162e-001 
1140000000  6.218983e-001  7.491891e-001 
1145000000  6.296489e-001  7.419115e-001 
1150000000  6.364301e-001  7.354854e-001 
1155000000  6.438109e-001  7.287251e-001 
1160000000  6.516603e-001  7.224265e-001 
1165000000  6.587077e-001  7.153003e-001 
1170000000  6.667583e-001  7.082219e-001 
1175000000  6.743801e-001  7.010335e-001 
1180000000  6.822551e-001  6.942132e-001 
1185000000  6.888896e-001  6.870285e-001 
1190000000  6.957208e-001  6.788649e-001 
1195000000  7.024906e-001  6.715202e-001 
1200000000  7.091488e-001  6.638666e-001 
1205000000  7.157370e-001  6.560187e-001 
1210000000  7.224604e-001  6.478560e-001 
1215000000  7.281455e-001  6.401932e-001 
1220000000  7.355213e-001  6.317093e-001 
1225000000  7.409308e-001  6.239856e-001 
1230000000  7.463096e-001  6.161904e-001 
1235000000  7.528842e-001  6.080163e-001 
1240000000  7.583772e-001  5.996400e-001 
1245000000  7.642662e-001  5.909072e-001 
1250000000  7.685050e-001  5.835363e-001 
1255000000  7.737729e-001  5.753998e-001 
1260000000  7.797437e-001  5.671219e-001 
1265000000  7.855300e-001  5.589300e-001 
1270000000  7.902772e-001  5.508996e-001 
1275000000  7.954419e-001  5.428934e-001 
1280000000  8.001689e-001  5.352179e-001 
1285000000  8.056195e-001  5.271271e-001 
1290000000  8.113867e-001  5.184386e-001 
1295000000  8.159860e-001  5.103835e-001 
1300000000  8.222659e-001  5.009618e-001 
1305000000  8.267747e-001  4.928353e-001 
1310000000  8.314347e-001  4.839188e-001 
1315000000  8.361841e-001  4.746930e-001 
1320000000  8.412485e-001  4.656268e-001 
1325000000  8.451484e-001  4.569195e-001 
1330000000  8.501813e-001  4.477085e-001 
1335000000  8.546094e-001  4.381803e-001 
1340000000  8.595597e-001  4.286223e-001 
1345000000  8.633534e-001  4.198365e-001 
1350000000  8.674510e-001  4.100111e-001 
1355000000  8.715358e-001  4.003564e-001 
1360000000  8.753409e-001  3.904949e-001 
1365000000  8.784323e-001  3.807722e-001 
1370000000  8.821068e-001  3.703322e-001 
1375000000  8.856432e-001  3.607796e-001 
1380000000  8.886266e-001  3.509195e-001 
1385000000  8.915817e-001  3.412422e-001 
1390000000  8.938305e-001  3.317178e-001 
1395000000  8.967499e-001  3.218564e-001 
1400000000  9.005502e-001  3.120831e-001 
1405000000  9.033087e-001  3.016053e-001 
1410000000  9.061449e-001  2.914987e-001 
1415000000  9.089264e-001  2.814744e-001 
1420000000  9.105044e-001  2.715008e-001 
1425000000  9.133944e-001  2.607093e-001 
1430000000  9.164811e-001  2.504680e-001 
1435000000  9.184278e-001  2.401266e-001 
1440000000  9.205919e-001  2.287139e-001 
1445000000  9.214414e-001  2.179893e-001 
1450000000  9.230595e-001  2.078025e-001 
1455000000  9.235960e-001  1.974736e-001 
1460000000  9.247987e-001  1.874376e-001 
1465000000  9.265236e-001  1.773662e-001 
1470000000  9.283043e-001  1.665301e-001 
1475000000  9.292400e-001  1.555413e-001 
1480000000  9.313266e-001  1.452030e-001 
1485000000  9.320391e-001  1.343408e-001 
1490000000  9.329870e-001  1.223289e-001 
1495000000  9.340934e-001  1.114523e-001 
1500000000  9.345981e-001  9.949041e-002 
1505000000  9.339738e-001  8.901630e-002 
1510000000  9.342868e-001  7.770377e-002 
1515000000  9.344580e-001  6.610543e-002 
1520000000  9.338010e-001  5.566606e-002 
1525000000  9.332504e-001  4.555703e-002 
1530000000  9.332644e-001  3.378993e-002 
1535000000  9.329472e-001  2.271426e-002 
1540000000  9.331091e-001  1.197828e-002 
1545000000  9.327950e-001  5.138572e-004 
1550000000  9.319873e-001  -1.211870e-002 
1555000000  9.308615e-001  -2.328631e-002 
1560000000  9.296800e-001  -3.608595e-002 
1565000000  9.277821e-001  -4.747170e-002 
1570000000  9.255715e-001  -5.936139e-002 
1575000000  9.230883e-001  -7.165335e-002 
1580000000  9.201700e-001  -8.269367e-002 
1585000000  9.176359e-001  -9.384871e-002 
1590000000  9.147617e-001  -1.047185e-001 
1595000000  9.121481e-001  -1.166473e-001 
1600000000  9.089948e-001  -1.281088e-001 
1605000000  9.055989e-001  -1.393579e-001 
1610000000  9.016473e-001  -1.512020e-001 
1615000000  8.977355e-001  -1.634873e-001 
1620000000  8.934989e-001  -1.752882e-001 
1625000000  8.890438e-001  -1.861407e-001 
1630000000  8.841042e-001  -1.975251e-001 
1635000000  8.793066e-001  -2.086115e-001 
1640000000  8.739946e-001  -2.202476e-001 
1645000000  8.691304e-001  -2.312556e-001 
1650000000  8.636403e-001  -2.428002e-001 
1655000000  8.578408e-001  -2.554650e-001 
1660000000  8.516141e-001  -2.667240e-001 
1665000000  8.448003e-001  -2.794249e-001 
1670000000  8.373262e-001  -2.899438e-001 
1675000000  8.299604e-001  -3.019605e-001 
1680000000  8.223307e-001  -3.128906e-001 
1685000000  8.142417e-001  -3.258251e-001 
1690000000  8.055084e-001  -3.371203e-001 
1695000000  7.963046e-001  -3.485453e-001 
1700000000  7.868811e-001  -3.601125e-001 
1705000000  7.767184e-001  -3.715175e-001 
1710000000  7.658741e-001  -3.827925e-001 
1715000000  7.546079e-001  -3.933633e-001 
1720000000  7.432722e-001  -4.038889e-001 
1725000000  7.315259e-001  -4.150991e-001 
1730000000  7.195427e-001  -4.248253e-001 
1735000000  7.070035e-001  -4.359947e-001 
1740000000  6.938428e-001  -4.457868e-001 
1745000000  6.801196e-001  -4.566693e-001 
1750000000  6.656265e-001  -4.658886e-001 
1755000000  6.497134e-001  -4.759401e-001 
1760000000  6.333107e-001  -4.844652e-001 
1765000000  6.170089e-001  -4.928718e-001 
1770000000  5.999367e-001  -5.010840e-001 
1775000000  5.820208e-001  -5.088320e-001 
1780000000  5.630755e-001  -5.157316e-001 
1785000000  5.438972e-001  -5.216755e-001 
1790000000  5.243971e-001  -5.276340e-001 
1795000000  5.031790e-001  -5.333194e-001 
1800000000  4.805628e-001  -5.375968e-001 
1805000000  4.572161e-001  -5.400160e-001 
1810000000  4.330382e-001  -5.417256e-001 
1815000000  4.092209e-001  -5.408574e-001 
1820000000  3.837277e-001  -5.399243e-001 
1825000000  3.576809e-001  -5.366311e-001 
1830000000  3.312541e-001  -5.316523e-001 
1835000000  3.041580e-001  -5.244716e-001 
1840000000  2.768767e-001  -5.146334e-001 
1845000000  2.503936e-001  -5.022876e-001 
1850000000  2.246104e-001  -4.884861e-001 
1855000000  1.984541e-001  -4.728720e-001 
1860000000  1.724394e-001  -4.535035e-001 
1865000000  1.478811e-001  -4.320249e-001 
1870000000  1.243716e-001  -4.076669e-001 
1875000000  1.019889e-001  -3.806458e-001 
1880000000  8.183970e-002  -3.499858e-001 
1885000000  6.521658e-002  -3.164632e-001 
1890000000  5.160689e-002  -2.819753e-001 
1895000000  4.084933e-002  -2.457591e-001 
1900000000  3.355955e-002  -2.067665e-001 
1905000000  3.133065e-002  -1.672685e-001 
1910000000  3.312450e-002  -1.278089e-001 
1915000000  3.832848e-002  -8.855218e-002 
1920000000  4.791667e-002  -4.973193e-002 
1925000000  6.188353e-002  -1.127448e-002 
1930000000  8.041390e-002  2.452211e-002 
1935000000  1.024743e-001  5.784063e-002 
1940000000  1.273822e-001  8.791877e-002 
1945000000  1.548353e-001  1.154438e-001 
1950000000  1.853755e-001  1.393022e-001 
1955000000  2.165690e-001  1.597692e-001 
1960000000  2.500511e-001  1.771423e-001 
1965000000  2.852781e-001  1.900825e-001 
1970000000  3.198262e-001  1.978983e-001 
1975000000  3.531997e-001  2.031493e-001 
1980000000  3.863830e-001  2.054579e-001 
1985000000  4.187252e-001  2.045506e-001 
1990000000  4.492827e-001  2.011328e-001 
1995000000  4.785926e-001  1.959763e-001 
2000000000  5.067024e-001  1.889815e-001 
2005000000  5.337881e-001  1.804512e-001 
2010000000  5.601128e-001  1.703121e-001 
2015000000  5.854851e-001  1.578983e-001 
2020000000  6.089646e-001  1.434779e-001 
2025000000  6.299272e-001  1.279599e-001 
2030000000  6.494006e-001  1.117343e-001 
2035000000  6.667766e-001  9.508219e-002 
2040000000  6.832424e-001  7.824771e-002 
2045000000  6.982522e-001  6.070746e-002 
2050000000  7.113881e-001  4.321307e-002 
2055000000  7.234154e-001  2.596144e-002 
2060000000  7.344580e-001  9.281233e-003 
2065000000  7.453737e-001  -7.771693e-003 
2070000000  7.556437e-001  -2.497835e-002 
2075000000  7.644313e-001  -4.280168e-002 
2080000000  7.727097e-001  -6.027766e-002 
2085000000  7.800186e-001  -7.807733e-002 
2090000000  7.861618e-001  -9.630415e-002 
2095000000  7.905968e-001  -1.143101e-001 
2100000000  7.941549e-001  -1.317238e-001 
2105000000  7.967613e-001  -1.480248e-001 
2110000000  7.989581e-001  -1.641663e-001 
2115000000  8.013111e-001  -1.795392e-001 
2120000000  8.033558e-001  -1.956445e-001 
2125000000  8.047872e-001  -2.103598e-001 
2130000000  8.058130e-001  -2.259128e-001 
2135000000  8.060225e-001  -2.410804e-001 
2140000000  8.059438e-001  -2.561293e-001 
2145000000  8.050331e-001  -2.708831e-001 
2150000000  8.038895e-001  -2.851659e-001 
2155000000  8.023690e-001  -2.991683e-001 
2160000000  8.009033e-001  -3.126554e-001 
2165000000  7.987549e-001  -3.261947e-001 
2170000000  7.965589e-001  -3.394334e-001 
2175000000  7.939995e-001  -3.523862e-001 
2180000000  7.915405e-001  -3.654137e-001 
2185000000  7.881534e-001  -3.786523e-001 
2190000000  7.845262e-001  -3.912843e-001 
2195000000  7.807445e-001  -4.044196e-001 
2200000000  7.766948e-001  -4.161485e-001 
2205000000  7.723871e-001  -4.279638e-001 
2210000000  7.679055e-001  -4.396907e-001 
2215000000  7.634745e-001  -4.514042e-001 
2220000000  7.588223e-001  -4.629979e-001 
2225000000  7.537411e-001  -4.747115e-001 
2230000000  7.482308e-001  -4.860483e-001 
2235000000  7.424752e-001  -4.970761e-001 
2240000000  7.368245e-001  -5.080290e-001 
2245000000  7.309781e-001  -5.186151e-001 
2250000000  7.247037e-001  -5.290099e-001 
2255000000  7.184882e-001  -5.396650e-001 
2260000000  7.124994e-001  -5.496446e-001 
2265000000  7.063850e-001  -5.596278e-001 
2270000000  6.999900e-001  -5.696114e-001 
2275000000  6.938369e-001  -5.786233e-001 
2280000000  6.872314e-001  -5.880110e-001 
2285000000  6.802239e-001  -5.972741e-001 
2290000000  6.733479e-001  -6.062669e-001 
2295000000  6.663623e-001  -6.151432e-001 
2300000000  6.594012e-001  -6.239089e-001 
2305000000  6.523011e-001  -6.324294e-001 
2310000000  6.450105e-001  -6.407341e-001 
2315000000  6.377179e-001  -6.491241e-001 
2320000000  6.304519e-001  -6.571305e-001 
2325000000  6.228703e-001  -6.649547e-001 
2330000000  6.153428e-001  -6.727015e-001 
2335000000  6.076254e-001  -6.800915e-001 
2340000000  5.998976e-001  -6.874576e-001 
2345000000  5.918766e-001  -6.944810e-001 
2350000000  5.842145e-001  -7.013088e-001 
2355000000  5.764623e-001  -7.079220e-001 
2360000000  5.686628e-001  -7.143626e-001 
2365000000  5.609050e-001  -7.205356e-001 
2370000000  5.534149e-001  -7.269115e-001 
2375000000  5.454609e-001  -7.331272e-001 
2380000000  5.375620e-001  -7.392398e-001 
2385000000  5.295609e-001  -7.452188e-001 
2390000000  5.214273e-001  -7.511315e-001 
2395000000  5.131480e-001  -7.568468e-001 
2400000000  5.049397e-001  -7.623675e-001 
2405000000  4.963523e-001  -7.676574e-001 
2410000000  4.880683e-001  -7.729305e-001 
2415000000  4.797097e-001  -7.779440e-001 
2420000000  4.712946e-001  -7.829121e-001 
2425000000  4.628903e-001  -7.879280e-001 
2430000000  4.541578e-001  -7.925964e-001 
2435000000  4.457114e-001  -7.972483e-001 
2440000000  4.369500e-001  -8.015546e-001 
2445000000  4.281608e-001  -8.056203e-001 
2450000000  4.195592e-001  -8.098196e-001 
2455000000  4.108687e-001  -8.139842e-001 
2460000000  4.019576e-001  -8.180404e-001 
2465000000  3.931700e-001  -8.219289e-001 
2470000000  3.841759e-001  -8.254227e-001 
2475000000  3.752323e-001  -8.291405e-001 
2480000000  3.661427e-001  -8.324811e-001 
2485000000  3.567480e-001  -8.355890e-001 
2490000000  3.477641e-001  -8.386109e-001 
2495000000  3.385399e-001  -8.413184e-001 
2500000000  3.292833e-001  -8.440594e-001 
2505000000  3.199662e-001  -8.464938e-001 
2510000000  3.106014e-001  -8.486859e-001 
2515000000  3.015157e-001  -8.507017e-001 
2520000000  2.920449e-001  -8.521728e-001 
2525000000  2.827151e-001  -8.535909e-001 
2530000000  2.733936e-001  -8.548400e-001 
2535000000  2.643633e-001  -8.557008e-001 
2540000000  2.552895e-001  -8.565835e-001 
2545000000  2.464468e-001  -8.572111e-001 
2550000000  2.377752e-001  -8.571855e-001 
2555000000  2.292753e-001  -8.572639e-001 
2560000000  2.209466e-001  -8.571940e-001 
2565000000  2.127858e-001  -8.567776e-001 
2570000000  2.052135e-001  -8.562171e-001 
2575000000  1.976596e-001  -8.557413e-001 
2580000000  1.905489e-001  -8.553284e-001 
2585000000  1.838531e-001  -8.549358e-001 
2590000000  1.773726e-001  -8.548647e-001 
2595000000  1.710041e-001  -8.547863e-001 
2600000000  1.647949e-001  -8.551817e-001 
2605000000  1.587828e-001  -8.559370e-001 
2610000000  1.527846e-001  -8.569060e-001 
2615000000  1.464836e-001  -8.581975e-001 
2620000000  1.402324e-001  -8.598259e-001 
2625000000  1.337057e-001  -8.614457e-001 
2630000000  1.269001e-001  -8.636708e-001 
2635000000  1.198404e-001  -8.656656e-001 
2640000000  1.123645e-001  -8.676682e-001 
2645000000  1.047868e-001  -8.698477e-001 
2650000000  9.694778e-002  -8.718665e-001 
2655000000  8.882523e-002  -8.735922e-001 
2660000000  8.054233e-002  -8.755423e-001 
2665000000  7.198411e-002  -8.770666e-001 
2670000000  6.329394e-002  -8.785221e-001 
2675000000  5.462942e-002  -8.797497e-001 
2680000000  4.585616e-002  -8.806696e-001 
2685000000  3.698172e-002  -8.816497e-001 
2690000000  2.803363e-002  -8.822604e-001 
2695000000  1.925475e-002  -8.827884e-001 
2700000000  1.047750e-002  -8.830587e-001 
2705000000  1.751921e-003  -8.834564e-001 
2710000000  -7.117157e-003  -8.833959e-001 
2715000000  -1.569951e-002  -8.833327e-001 
2720000000  -2.443623e-002  -8.831901e-001 
2725000000  -3.299215e-002  -8.826842e-001 
2730000000  -4.162146e-002  -8.821511e-001 
2735000000  -5.011320e-002  -8.814669e-001 
2740000000  -5.859182e-002  -8.804947e-001 
2745000000  -6.679139e-002  -8.791717e-001 
2750000000  -7.511237e-002  -8.780354e-001 
2755000000  -8.332084e-002  -8.771480e-001 
2760000000  -9.109340e-002  -8.755670e-001 
2765000000  -9.935062e-002  -8.745233e-001 
2770000000  -1.071088e-001  -8.729956e-001 
2775000000  -1.149929e-001  -8.712568e-001 
2780000000  -1.227926e-001  -8.695896e-001 
2785000000  -1.300869e-001  -8.680892e-001 
2790000000  -1.380741e-001  -8.657486e-001 
2795000000  -1.454730e-001  -8.632972e-001 
2800000000  -1.528402e-001  -8.612972e-001 
2805000000  -1.602470e-001  -8.594232e-001 
2810000000  -1.676156e-001  -8.575309e-001 
2815000000  -1.750238e-001  -8.554777e-001 
2820000000  -1.826512e-001  -8.533126e-001 
2825000000  -1.900219e-001  -8.510975e-001 
2830000000  -1.970833e-001  -8.483303e-001 
2835000000  -2.045219e-001  -8.462865e-001 
2840000000  -2.117670e-001  -8.436865e-001 
2845000000  -2.192796e-001  -8.403901e-001 
2850000000  -2.260526e-001  -8.379264e-001 
2855000000  -2.333501e-001  -8.356760e-001 
2860000000  -2.406199e-001  -8.329433e-001 
2865000000  -2.478231e-001  -8.300294e-001 
2870000000  -2.551829e-001  -8.270512e-001 
2875000000  -2.626694e-001  -8.241380e-001 
2880000000  -2.698855e-001  -8.213037e-001 
2885000000  -2.769504e-001  -8.179743e-001 
2890000000  -2.839102e-001  -8.147441e-001 
2895000000  -2.910786e-001  -8.113789e-001 
2900000000  -2.984861e-001  -8.083966e-001 
2905000000  -3.056826e-001  -8.052310e-001 
2910000000  -3.128064e-001  -8.018453e-001 
2915000000  -3.196893e-001  -7.983138e-001 
2920000000  -3.266494e-001  -7.946121e-001 
2925000000  -3.336547e-001  -7.911750e-001 
2930000000  -3.407983e-001  -7.877957e-001 
2935000000  -3.477183e-001  -7.842483e-001 
2940000000  -3.546060e-001  -7.807397e-001 
2945000000  -3.616211e-001  -7.771546e-001 
2950000000  -3.684250e-001  -7.734566e-001 
2955000000  -3.751945e-001  -7.698979e-001 
2960000000  -3.818955e-001  -7.662136e-001 
2965000000  -3.885574e-001  -7.623984e-001 
2970000000  -3.950016e-001  -7.584704e-001 
2975000000  -4.010857e-001  -7.542423e-001 
2980000000  -4.076590e-001  -7.505770e-001 
2985000000  -4.134909e-001  -7.465249e-001 
2990000000  -4.199794e-001  -7.428361e-001 
2995000000  -4.269515e-001  -7.392225e-001 
3000000000  -4.336004e-001  -7.352799e-001 
3005000000  -4.398723e-001  -7.313386e-001 
3010000000  -4.460445e-001  -7.272227e-001 
3015000000  -4.529351e-001  -7.231923e-001 
3020000000  -4.591003e-001  -7.190557e-001 
3025000000  -4.644857e-001  -7.150521e-001 
3030000000  -4.705623e-001  -7.110273e-001 
3035000000  -4.761173e-001  -7.069393e-001 
3040000000  -4.831407e-001  -7.028735e-001 
3045000000  -4.900095e-001  -6.985992e-001 
3050000000  -4.970887e-001  -6.941422e-001 
3055000000  -5.039071e-001  -6.896363e-001 
3060000000  -5.104106e-001  -6.849523e-001 
3065000000  -5.173932e-001  -6.801060e-001 
3070000000  -5.242821e-001  -6.751211e-001 
3075000000  -5.317572e-001  -6.698256e-001 
3080000000  -5.375677e-001  -6.649357e-001 
3085000000  -5.453659e-001  -6.592307e-001 
3090000000  -5.535197e-001  -6.533676e-001 
3095000000  -5.628443e-001  -6.471980e-001 
3100000000  -5.719769e-001  -6.399374e-001 
3105000000  -5.800295e-001  -6.334673e-001 
3110000000  -5.869433e-001  -6.275723e-001 
3115000000  -5.928916e-001  -6.217510e-001 
3120000000  -6.010235e-001  -6.148391e-001 
3125000000  -6.096697e-001  -6.073652e-001 
3130000000  -6.187362e-001  -5.993214e-001 
3135000000  -6.284212e-001  -5.901374e-001 
3140000000  -6.392991e-001  -5.801883e-001 
3145000000  -6.477960e-001  -5.711809e-001 
3150000000  -6.572757e-001  -5.612969e-001 
3155000000  -6.653337e-001  -5.528150e-001 
3160000000  -6.725095e-001  -5.449153e-001 
3165000000  -6.812914e-001  -5.346770e-001 
3170000000  -6.891965e-001  -5.255612e-001 
3175000000  -6.978607e-001  -5.149071e-001 
3180000000  -7.062896e-001  -5.037379e-001 
3185000000  -7.153935e-001  -4.912367e-001 
3190000000  -7.242680e-001  -4.778262e-001 
3195000000  -7.322105e-001  -4.636316e-001 
3200000000  -7.409998e-001  -4.494327e-001 
3205000000  -7.482213e-001  -4.350449e-001 
3210000000  -7.557032e-001  -4.198649e-001 
3215000000  -7.631274e-001  -3.967697e-001 
3220000000  -7.693093e-001  -3.776616e-001 
3225000000  -7.740088e-001  -3.605779e-001 
3230000000  -7.778802e-001  -3.456547e-001 
3235000000  -7.813389e-001  -3.310149e-001 
3240000000  -7.840615e-001  -3.131512e-001 
3245000000  -7.851768e-001  -2.933335e-001 
3250000000  -7.862429e-001  -2.720435e-001 
3255000000  -7.859961e-001  -2.517742e-001 
3260000000  -7.835974e-001  -2.308136e-001 
3265000000  -7.801850e-001  -2.104064e-001 
3270000000  -7.759011e-001  -1.892917e-001 
3275000000  -7.694381e-001  -1.689303e-001 
3280000000  -7.612875e-001  -1.484522e-001 
3285000000  -7.518892e-001  -1.286149e-001 
3290000000  -7.409604e-001  -1.089026e-001 
3295000000  -7.287455e-001  -8.983664e-002 
3300000000  -7.150343e-001  -7.200756e-002 
3305000000  -6.972200e-001  -5.413906e-002 
3310000000  -6.785650e-001  -3.816285e-002 
3315000000  -6.591029e-001  -2.356233e-002 
3320000000  -6.381858e-001  -1.091608e-002 
3325000000  -6.160405e-001  -1.551915e-004 
3330000000  -5.931290e-001  8.340143e-003 
3335000000  -5.700846e-001  1.489847e-002 
3340000000  -5.464689e-001  1.917617e-002 
3345000000  -5.229422e-001  2.144566e-002 
3350000000  -4.997200e-001  2.135390e-002 
3355000000  -4.769153e-001  1.993551e-002 
3360000000  -4.542216e-001  1.622107e-002 
3365000000  -4.321251e-001  8.640400e-003 
3370000000  -4.125242e-001  -1.197691e-003 
3375000000  -3.952571e-001  -1.193057e-002 
3380000000  -3.797671e-001  -2.361622e-002 
3385000000  -3.660601e-001  -3.620170e-002 
3390000000  -3.534275e-001  -4.923759e-002 
3395000000  -3.423936e-001  -6.375186e-002 
3400000000  -3.339525e-001  -8.013980e-002 
3405000000  -3.277577e-001  -9.748892e-002 
3410000000  -3.245919e-001  -1.134876e-001 
3415000000  -3.228842e-001  -1.286111e-001 
3420000000  -3.224967e-001  -1.440115e-001 
3425000000  -3.242045e-001  -1.594449e-001 
3430000000  -3.278363e-001  -1.734894e-001 
3435000000  -3.330803e-001  -1.870860e-001 
3440000000  -3.400323e-001  -1.990383e-001 
3445000000  -3.474393e-001  -2.097336e-001 
3450000000  -3.563284e-001  -2.208593e-001 
3455000000  -3.664779e-001  -2.299673e-001 
3460000000  -3.774802e-001  -2.379464e-001 
3465000000  -3.886330e-001  -2.451535e-001 
3470000000  -4.016891e-001  -2.514237e-001 
3475000000  -4.153862e-001  -2.555356e-001 
3480000000  -4.288169e-001  -2.582563e-001 
3485000000  -4.421230e-001  -2.595797e-001 
3490000000  -4.550484e-001  -2.601124e-001 
3495000000  -4.680814e-001  -2.605425e-001 
3500000000  -4.820440e-001  -2.593887e-001 
3505000000  -4.953910e-001  -2.568921e-001 
3510000000  -5.086077e-001  -2.536799e-001 
3515000000  -5.216984e-001  -2.491343e-001 
3520000000  -5.347070e-001  -2.437175e-001 
3525000000  -5.471607e-001  -2.363564e-001 
3530000000  -5.585027e-001  -2.288424e-001 
3535000000  -5.695525e-001  -2.207445e-001 
3540000000  -5.811763e-001  -2.114974e-001 
3545000000  -5.914048e-001  -2.002003e-001 
3550000000  -6.000123e-001  -1.886713e-001 
3555000000  -6.082595e-001  -1.766824e-001 
3560000000  -6.160887e-001  -1.636887e-001 
3565000000  -6.229754e-001  -1.501516e-001 
3570000000  -6.285049e-001  -1.364291e-001 
3575000000  -6.341283e-001  -1.216122e-001 
3580000000  -6.385515e-001  -1.063102e-001 
3585000000  -6.414042e-001  -8.992021e-002 
3590000000  -6.429758e-001  -7.378811e-002 
3595000000  -6.433938e-001  -5.720782e-002 
3600000000  -6.424828e-001  -4.085431e-002 
3605000000  -6.413165e-001  -2.510175e-002 
3610000000  -6.388821e-001  -7.803986e-003 
3615000000  -6.351492e-001  9.382891e-003 
3620000000  -6.303083e-001  2.678033e-002 
3625000000  -6.232831e-001  4.354921e-002 
3630000000  -6.155053e-001  6.042270e-002 
3635000000  -6.060264e-001  7.632656e-002 
3640000000  -5.959468e-001  9.142721e-002 
3645000000  -5.856404e-001  1.051246e-001 
3650000000  -5.751486e-001  1.194388e-001 
3655000000  -5.633142e-001  1.331459e-001 
3660000000  -5.507231e-001  1.466803e-001 
3665000000  -5.369197e-001  1.596153e-001 
3670000000  -5.227078e-001  1.707903e-001 
3675000000  -5.075263e-001  1.820963e-001 
3680000000  -4.912534e-001  1.920417e-001 
3685000000  -4.745783e-001  2.004021e-001 
3690000000  -4.579436e-001  2.077320e-001 
3695000000  -4.413260e-001  2.141556e-001 
3700000000  -4.243926e-001  2.199312e-001 
3705000000  -4.066814e-001  2.253625e-001 
3710000000  -3.885035e-001  2.284870e-001 
3715000000  -3.704305e-001  2.304349e-001 
3720000000  -3.525699e-001  2.313588e-001 
3725000000  -3.348549e-001  2.308348e-001 
3730000000  -3.172394e-001  2.296682e-001 
3735000000  -3.007028e-001  2.269107e-001 
3740000000  -2.848756e-001  2.239074e-001 
3745000000  -2.687503e-001  2.204944e-001 
3750000000  -2.526483e-001  2.154298e-001 
3755000000  -2.377765e-001  2.091673e-001 
3760000000  -2.240350e-001  2.019016e-001 
3765000000  -2.111085e-001  1.946461e-001 
3770000000  -1.986055e-001  1.865710e-001 
3775000000  -1.871791e-001  1.779117e-001 
3780000000  -1.765821e-001  1.690650e-001 
3785000000  -1.666320e-001  1.600816e-001 
3790000000  -1.569826e-001  1.507378e-001 
3795000000  -1.482315e-001  1.413162e-001 
3800000000  -1.399481e-001  1.314059e-001 
3805000000  -1.325370e-001  1.217294e-001 
3810000000  -1.251615e-001  1.121938e-001 
3815000000  -1.186059e-001  1.024025e-001 
3820000000  -1.123558e-001  9.293920e-002 
3825000000  -1.062254e-001  8.375341e-002 
3830000000  -1.002354e-001  7.463206e-002 
3835000000  -9.446871e-002  6.561217e-002 
3840000000  -8.826858e-002  5.698967e-002 
3845000000  -8.147435e-002  4.797820e-002 
3850000000  -7.472898e-002  3.787738e-002 
3855000000  -6.838394e-002  2.743222e-002 
3860000000  -6.215193e-002  1.649970e-002 
3865000000  -5.633736e-002  5.304355e-003 
3870000000  -5.049790e-002  -6.110461e-003 
3875000000  -4.450352e-002  -1.806611e-002 
3880000000  -3.882892e-002  -3.113130e-002 
3885000000  -3.349511e-002  -4.475881e-002 
3890000000  -2.883845e-002  -5.915519e-002 
3895000000  -2.469958e-002  -7.444347e-002 
3900000000  -2.168317e-002  -9.023887e-002 
3905000000  -1.927597e-002  -1.064431e-001 
3910000000  -1.800115e-002  -1.229137e-001 
3915000000  -1.756158e-002  -1.398400e-001 
3920000000  -1.808266e-002  -1.570128e-001 
3925000000  -1.983264e-002  -1.743914e-001 
3930000000  -2.265989e-002  -1.916395e-001 
3935000000  -2.648963e-002  -2.089688e-001 
3940000000  -3.155472e-002  -2.262244e-001 
3945000000  -3.795079e-002  -2.431552e-001 
3950000000  -4.527744e-002  -2.594381e-001 
3955000000  -5.318817e-002  -2.762792e-001 
3960000000  -6.254181e-002  -2.925388e-001 
3965000000  -7.366384e-002  -3.079115e-001 
3970000000  -8.519170e-002  -3.222812e-001 
3975000000  -9.764607e-002  -3.361472e-001 
3980000000  -1.108016e-001  -3.490980e-001 
3985000000  -1.242836e-001  -3.613375e-001 
3990000000  -1.384507e-001  -3.732384e-001 
3995000000  -1.535047e-001  -3.841722e-001 
4000000000  -1.690154e-001  -3.939822e-001 
4005000000  -1.848238e-001  -4.032408e-001 
4010000000  -2.015534e-001  -4.111619e-001 
4015000000  -2.183037e-001  -4.182903e-001 
4020000000  -2.356488e-001  -4.243229e-001 
4025000000  -2.523585e-001  -4.298677e-001 
4030000000  -2.700166e-001  -4.341748e-001 
4035000000  -2.867786e-001  -4.381182e-001 
4040000000  -3.042404e-001  -4.410167e-001 
4045000000  -3.218961e-001  -4.427429e-001 
4050000000  -3.389142e-001  -4.441893e-001 
4055000000  -3.566287e-001  -4.447400e-001 
4060000000  -3.738507e-001  -4.445030e-001 
4065000000  -3.911124e-001  -4.436774e-001 
4070000000  -4.081824e-001  -4.420200e-001 
4075000000  -4.250572e-001  -4.395908e-001 
4080000000  -4.412643e-001  -4.368324e-001 
4085000000  -4.582079e-001  -4.325339e-001 
4090000000  -4.735013e-001  -4.283307e-001 
4095000000  -4.884483e-001  -4.237578e-001 
4100000000  -5.037963e-001  -4.180903e-001 
4105000000  -5.182925e-001  -4.121265e-001 
4110000000  -5.329900e-001  -4.057320e-001 
4115000000  -5.470256e-001  -3.985101e-001 
4120000000  -5.604498e-001  -3.912830e-001 
4125000000  -5.732404e-001  -3.842845e-001 
4130000000  -5.861894e-001  -3.759009e-001 
4135000000  -5.986871e-001  -3.676266e-001 
4140000000  -6.108885e-001  -3.588999e-001 
4145000000  -6.225457e-001  -3.501635e-001 
4150000000  -6.341432e-001  -3.405119e-001 
4155000000  -6.448410e-001  -3.309589e-001 
4160000000  -6.551642e-001  -3.212591e-001 
4165000000  -6.652111e-001  -3.114015e-001 
4170000000  -6.745059e-001  -3.016980e-001 
4175000000  -6.842852e-001  -2.917611e-001 
4180000000  -6.928920e-001  -2.821401e-001 
4185000000  -7.016895e-001  -2.717723e-001 
4190000000  -7.102283e-001  -2.615752e-001 
4195000000  -7.188672e-001  -2.508900e-001 
4200000000  -7.263090e-001  -2.402839e-001 
4205000000  -7.343381e-001  -2.293822e-001 
4210000000  -7.407740e-001  -2.190473e-001 
4215000000  -7.476487e-001  -2.078069e-001 
4220000000  -7.540902e-001  -1.968961e-001 
4225000000  -7.607908e-001  -1.856719e-001 
4230000000  -7.667241e-001  -1.749156e-001 
4235000000  -7.725344e-001  -1.631222e-001 
4240000000  -7.777091e-001  -1.518556e-001 
4245000000  -7.832389e-001  -1.405540e-001 
4250000000  -7.878305e-001  -1.293975e-001 
4255000000  -7.927751e-001  -1.176894e-001 
4260000000  -7.969192e-001  -1.065450e-001 
4265000000  -8.014042e-001  -9.474142e-002 
4270000000  -8.052921e-001  -8.357576e-002 
4275000000  -8.088087e-001  -7.098896e-002 
4280000000  -8.122470e-001  -5.949190e-002 
4285000000  -8.147912e-001  -4.776526e-002 
4290000000  -8.168440e-001  -3.596107e-002 
4295000000  -8.194872e-001  -2.318124e-002 
4300000000  -8.212765e-001  -1.215360e-002 
4305000000  -8.226300e-001  2.063491e-004 
4310000000  -8.244323e-001  1.226705e-002 
4315000000  -8.258326e-001  2.514606e-002 
4320000000  -8.264896e-001  3.678803e-002 
4325000000  -8.273252e-001  4.901678e-002 
4330000000  -8.278250e-001  6.152652e-002 
4335000000  -8.277293e-001  7.426760e-002 
4340000000  -8.276794e-001  8.647005e-002 
4345000000  -8.273884e-001  9.853093e-002 
4350000000  -8.268606e-001  1.108516e-001 
4355000000  -8.266072e-001  1.232869e-001 
4360000000  -8.254996e-001  1.346758e-001 
4365000000  -8.241107e-001  1.478465e-001 
4370000000  -8.227347e-001  1.596306e-001 
4375000000  -8.211511e-001  1.709635e-001 
4380000000  -8.189253e-001  1.820562e-001 
4385000000  -8.167988e-001  1.935905e-001 
4390000000  -8.150350e-001  2.048187e-001 
4395000000  -8.127437e-001  2.168727e-001 
4400000000  -8.101873e-001  2.272976e-001 
4405000000  -8.070768e-001  2.382098e-001 
4410000000  -8.048319e-001  2.492788e-001 
4415000000  -8.019406e-001  2.599661e-001 
4420000000  -7.988001e-001  2.712585e-001 
4425000000  -7.953463e-001  2.817481e-001 
4430000000  -7.918863e-001  2.915731e-001 
4435000000  -7.891158e-001  3.012997e-001 
4440000000  -7.849873e-001  3.110866e-001 
4445000000  -7.817206e-001  3.200963e-001 
4450000000  -7.776638e-001  3.297029e-001 
4455000000  -7.737675e-001  3.385905e-001 
4460000000  -7.699540e-001  3.466427e-001 
4465000000  -7.661975e-001  3.560221e-001 
4470000000  -7.620931e-001  3.647122e-001 
4475000000  -7.572952e-001  3.732383e-001 
4480000000  -7.525440e-001  3.815210e-001 
4485000000  -7.477479e-001  3.888558e-001 
4490000000  -7.420344e-001  3.968274e-001 
4495000000  -7.370861e-001  4.054552e-001 
4500000000  -7.321774e-001  4.127440e-001 
4505000000  -7.263407e-001  4.205943e-001 
4510000000  -7.201547e-001  4.281493e-001 
4515000000  -7.148020e-001  4.360276e-001 
4520000000  -7.084193e-001  4.437020e-001 
4525000000  -7.015351e-001  4.521975e-001 
4530000000  -6.951162e-001  4.595497e-001 
4535000000  -6.887118e-001  4.664301e-001 
4540000000  -6.819587e-001  4.746014e-001 
4545000000  -6.743878e-001  4.820743e-001 
4550000000  -6.668823e-001  4.895522e-001 
4555000000  -6.594239e-001  4.972427e-001 
4560000000  -6.518494e-001  5.041739e-001 
4565000000  -6.440841e-001  5.117622e-001 
4570000000  -6.355802e-001  5.199031e-001 
4575000000  -6.271063e-001  5.276136e-001 
4580000000  -6.186168e-001  5.352636e-001 
4585000000  -6.096905e-001  5.432110e-001 
4590000000  -6.009889e-001  5.508077e-001 
4595000000  -5.921074e-001  5.576553e-001 
4600000000  -5.828721e-001  5.652241e-001 
4605000000  -5.736784e-001  5.726628e-001 
4610000000  -5.641647e-001  5.812749e-001 
4615000000  -5.546986e-001  5.876157e-001 
4620000000  -5.451294e-001  5.953719e-001 
4625000000  -5.347282e-001  6.027579e-001 
4630000000  -5.253588e-001  6.091397e-001 
4635000000  -5.154257e-001  6.165006e-001 
4640000000  -5.054809e-001  6.229716e-001 
4645000000  -4.959925e-001  6.295707e-001 
4650000000  -4.861950e-001  6.352271e-001 
4655000000  -4.757537e-001  6.414969e-001 
4660000000  -4.664238e-001  6.468927e-001 
4665000000  -4.567712e-001  6.523468e-001 
4670000000  -4.465121e-001  6.585400e-001 
4675000000  -4.371564e-001  6.626249e-001 
4680000000  -4.265428e-001  6.678060e-001 
4685000000  -4.170279e-001  6.718695e-001 
4690000000  -4.073079e-001  6.761956e-001 
4695000000  -3.972919e-001  6.809825e-001 
4700000000  -3.876737e-001  6.841273e-001 
4705000000  -3.774643e-001  6.880767e-001 
4710000000  -3.680610e-001  6.909427e-001 
4715000000  -3.580821e-001  6.936853e-001 
4720000000  -3.486355e-001  6.968961e-001 
4725000000  -3.392539e-001  6.991617e-001 
4730000000  -3.293609e-001  7.016559e-001 
4735000000  -3.198881e-001  7.031257e-001 
4740000000  -3.101904e-001  7.048365e-001 
4745000000  -3.003777e-001  7.067724e-001 
4750000000  -2.909981e-001  7.075945e-001 
4755000000  -2.811398e-001  7.084721e-001 
4760000000  -2.717264e-001  7.091061e-001 
4765000000  -2.619180e-001  7.096977e-001 
4770000000  -2.522888e-001  7.098133e-001 
4775000000  -2.422159e-001  7.103509e-001 
4780000000  -2.324686e-001  7.099771e-001 
4785000000  -2.217679e-001  7.102933e-001 
4790000000  -2.120366e-001  7.094900e-001 
4795000000  -2.021151e-001  7.086337e-001 
4800000000  -1.913291e-001  7.085294e-001 
4805000000  -1.812637e-001  7.072813e-001 
4810000000  -1.711826e-001  7.057391e-001 
4815000000  -1.600102e-001  7.045440e-001 
4820000000  -1.496546e-001  7.029692e-001 
4825000000  -1.392275e-001  7.013216e-001 
4830000000  -1.281390e-001  6.994041e-001 
4835000000  -1.175617e-001  6.969675e-001 
4840000000  -1.071703e-001  6.938090e-001 
4845000000  -9.625365e-002  6.911497e-001 
4850000000  -8.615344e-002  6.878096e-001 
4855000000  -7.551331e-002  6.845007e-001 
4860000000  -6.506162e-002  6.802762e-001 
4865000000  -5.398338e-002  6.764272e-001 
4870000000  -4.344644e-002  6.718571e-001 
4875000000  -3.268966e-002  6.671365e-001 
4880000000  -2.230488e-002  6.620032e-001 
4885000000  -1.187144e-002  6.565894e-001 
4890000000  -1.348082e-003  6.511267e-001 
4895000000  8.316716e-003  6.449448e-001 
4900000000  1.899303e-002  6.387639e-001 
4905000000  2.883063e-002  6.320741e-001 
4910000000  3.908785e-002  6.253034e-001 
4915000000  4.927830e-002  6.180426e-001 
4920000000  5.915320e-002  6.103026e-001 
4925000000  6.860181e-002  6.021046e-001 
4930000000  7.770600e-002  5.937533e-001 
4935000000  8.737266e-002  5.850552e-001 
4940000000  9.656098e-002  5.759833e-001 
4945000000  1.053043e-001  5.664358e-001 
4950000000  1.137090e-001  5.564686e-001 
4955000000  1.219728e-001  5.464677e-001 
4960000000  1.299406e-001  5.358672e-001 
4965000000  1.372383e-001  5.248977e-001 
4970000000  1.449187e-001  5.137049e-001 
4975000000  1.518097e-001  5.020793e-001 
4980000000  1.581125e-001  4.901522e-001 
4985000000  1.638279e-001  4.780652e-001 
4990000000  1.689321e-001  4.657904e-001 
4995000000  1.737339e-001  4.532356e-001 
5000000000  1.776252e-001  4.406344e-001 
5005000000  1.807085e-001  4.279952e-001 
5010000000  1.832760e-001  4.153132e-001 
5015000000  1.850311e-001  4.025614e-001 
5020000000  1.855514e-001  3.901067e-001 
5025000000  1.861195e-001  3.776573e-001 
5030000000  1.853860e-001  3.654349e-001 
5035000000  1.838190e-001  3.532475e-001 
5040000000  1.815386e-001  3.417194e-001 
5045000000  1.787353e-001  3.301676e-001 
5050000000  1.746643e-001  3.190547e-001 
5055000000  1.698451e-001  3.084556e-001 
5060000000  1.643997e-001  2.984036e-001 
5065000000  1.579075e-001  2.888830e-001 
5070000000  1.512007e-001  2.799188e-001 
5075000000  1.435188e-001  2.715821e-001 
5080000000  1.355527e-001  2.640607e-001 
5085000000  1.267941e-001  2.573709e-001 
5090000000  1.173881e-001  2.513538e-001 
5095000000  1.077633e-001  2.461222e-001 
5100000000  9.738759e-002  2.417323e-001 
5105000000  8.676998e-002  2.386627e-001 
5110000000  7.610288e-002  2.364853e-001 
5115000000  6.533447e-002  2.350987e-001 
5120000000  5.439507e-002  2.348419e-001 
5125000000  4.406688e-002  2.355128e-001 
5130000000  3.372374e-002  2.369726e-001 
5135000000  2.380797e-002  2.391476e-001 
5140000000  1.423463e-002  2.422698e-001 
5145000000  5.154465e-003  2.460110e-001 
5150000000  -3.215607e-003  2.503526e-001 
5155000000  -1.107291e-002  2.553483e-001 
5160000000  -1.820572e-002  2.608265e-001 
5165000000  -2.502721e-002  2.666761e-001 
5170000000  -3.061864e-002  2.732789e-001 
5175000000  -3.548495e-002  2.804000e-001 
5180000000  -3.938935e-002  2.877879e-001 
5185000000  -4.205513e-002  2.953766e-001 
5190000000  -4.402701e-002  3.029722e-001 
5195000000  -4.497859e-002  3.103842e-001 
5200000000  -4.544088e-002  3.180957e-001 
5205000000  -4.491457e-002  3.258638e-001 
5210000000  -4.334428e-002  3.335818e-001 
5215000000  -4.092019e-002  3.410419e-001 
5220000000  -3.786787e-002  3.482530e-001 
5225000000  -3.370467e-002  3.552005e-001 
5230000000  -2.902559e-002  3.617445e-001 
5235000000  -2.398769e-002  3.677643e-001 
5240000000  -1.835888e-002  3.735754e-001 
5245000000  -1.215039e-002  3.792361e-001 
5250000000  -5.295562e-003  3.847727e-001 
5255000000  2.219630e-003  3.895694e-001 
5260000000  1.024718e-002  3.938005e-001 
5265000000  1.857713e-002  3.976173e-001 
5270000000  2.726275e-002  4.009448e-001 
5275000000  3.629662e-002  4.038671e-001 
5280000000  4.568419e-002  4.059826e-001 
5285000000  5.493548e-002  4.075290e-001 
5290000000  6.435372e-002  4.087308e-001 
5295000000  7.385827e-002  4.094222e-001 
5300000000  8.340071e-002  4.096868e-001 
5305000000  9.247843e-002  4.093747e-001 
5310000000  1.021614e-001  4.087379e-001 
5315000000  1.114736e-001  4.075106e-001 
5320000000  1.208144e-001  4.058207e-001 
5325000000  1.298476e-001  4.035046e-001 
5330000000  1.390113e-001  4.007597e-001 
5335000000  1.475272e-001  3.973429e-001 
5340000000  1.559976e-001  3.933513e-001 
5345000000  1.642633e-001  3.888470e-001 
5350000000  1.719729e-001  3.838385e-001 
5355000000  1.792979e-001  3.785778e-001 
5360000000  1.865333e-001  3.731137e-001 
5365000000  1.937190e-001  3.670207e-001 
5370000000  2.004210e-001  3.605466e-001 
5375000000  2.069112e-001  3.536409e-001 
5380000000  2.131363e-001  3.463733e-001 
5385000000  2.192845e-001  3.385287e-001 
5390000000  2.243943e-001  3.304076e-001 
5395000000  2.299805e-001  3.216898e-001 
5400000000  2.346229e-001  3.123626e-001 
5405000000  2.385561e-001  3.029181e-001 
5410000000  2.420304e-001  2.933012e-001 
5415000000  2.451423e-001  2.834644e-001 
5420000000  2.475717e-001  2.734387e-001 
5425000000  2.496307e-001  2.634673e-001 
5430000000  2.513414e-001  2.534710e-001 
5435000000  2.529838e-001  2.433452e-001 
5440000000  2.541592e-001  2.327988e-001 
5445000000  2.546618e-001  2.223486e-001 
5450000000  2.551078e-001  2.114744e-001 
5455000000  2.552020e-001  2.002496e-001 
5460000000  2.543518e-001  1.889381e-001 
5465000000  2.526785e-001  1.777932e-001 
5470000000  2.502266e-001  1.668400e-001 
5475000000  2.467731e-001  1.564688e-001 
5480000000  2.434025e-001  1.464960e-001 
5485000000  2.393474e-001  1.370685e-001 
5490000000  2.350876e-001  1.280256e-001 
5495000000  2.304897e-001  1.196829e-001 
5500000000  2.258025e-001  1.114024e-001 
5505000000  2.207862e-001  1.030671e-001 
5510000000  2.149013e-001  9.478623e-002 
5515000000  2.082889e-001  8.696001e-002 
5520000000  2.011063e-001  7.963064e-002 
5525000000  1.932572e-001  7.251797e-002 
5530000000  1.842816e-001  6.645840e-002 
5535000000  1.752339e-001  6.158010e-002 
5540000000  1.660618e-001  5.699025e-002 
5545000000  1.566533e-001  5.325192e-002 
5550000000  1.471912e-001  5.006756e-002 
5555000000  1.374734e-001  4.737441e-002 
5560000000  1.278249e-001  4.525330e-002 
5565000000  1.178339e-001  4.342073e-002 
5570000000  1.075095e-001  4.224860e-002 
5575000000  9.698774e-002  4.172555e-002 
5580000000  8.627058e-002  4.164190e-002 
5585000000  7.532960e-002  4.233011e-002 
5590000000  6.431253e-002  4.386785e-002 
5595000000  5.335267e-002  4.601542e-002 
5600000000  4.246687e-002  4.890315e-002 
5605000000  3.173787e-002  5.237992e-002 
5610000000  2.126053e-002  5.665894e-002 
5615000000  1.133530e-002  6.130281e-002 
5620000000  1.764175e-003  6.627328e-002 
5625000000  -7.581119e-003  7.143405e-002 
5630000000  -1.679917e-002  7.690439e-002 
5635000000  -2.575076e-002  8.287396e-002 
5640000000  -3.442037e-002  8.915695e-002 
5645000000  -4.251790e-002  9.604793e-002 
5650000000  -5.028639e-002  1.032375e-001 
5655000000  -5.751361e-002  1.108949e-001 
5660000000  -6.415465e-002  1.189546e-001 
5665000000  -7.000528e-002  1.273518e-001 
5670000000  -7.531187e-002  1.360558e-001 
5675000000  -7.977656e-002  1.450807e-001 
5680000000  -8.335533e-002  1.540993e-001 
5685000000  -8.643311e-002  1.627450e-001 
5690000000  -8.915818e-002  1.716964e-001 
5695000000  -9.159482e-002  1.806762e-001 
5700000000  -9.355574e-002  1.900967e-001 
5705000000  -9.495331e-002  1.997129e-001 
5710000000  -9.570317e-002  2.096792e-001 
5715000000  -9.562404e-002  2.199610e-001 
5720000000  -9.487592e-002  2.303279e-001 
5725000000  -9.311476e-002  2.409748e-001 
5730000000  -9.053505e-002  2.513526e-001 
5735000000  -8.694499e-002  2.614779e-001 
5740000000  -8.283539e-002  2.708055e-001 
5745000000  -7.855321e-002  2.800634e-001 
5750000000  -7.398504e-002  2.890368e-001 
5755000000  -6.933433e-002  2.981674e-001 
5760000000  -6.436875e-002  3.075250e-001 
5765000000  -5.851205e-002  3.171595e-001 
5770000000  -5.221630e-002  3.266183e-001 
5775000000  -4.538789e-002  3.358475e-001 
5780000000  -3.765606e-002  3.450071e-001 
5785000000  -2.940001e-002  3.537654e-001 
5790000000  -2.068103e-002  3.619757e-001 
5795000000  -1.170907e-002  3.695286e-001 
5800000000  -2.525279e-003  3.765748e-001 
5805000000  6.508937e-003  3.829220e-001 
5810000000  1.555051e-002  3.889363e-001 
5815000000  2.398630e-002  3.946762e-001 
5820000000  3.278814e-002  4.003575e-001 
5825000000  4.188522e-002  4.061201e-001 
5830000000  5.110421e-002  4.114261e-001 
5835000000  6.081051e-002  4.164818e-001 
5840000000  7.091350e-002  4.211982e-001 
5845000000  8.125456e-002  4.250173e-001 
5850000000  9.213774e-002  4.279991e-001 
5855000000  1.026656e-001  4.303662e-001 
5860000000  1.129776e-001  4.322148e-001 
5865000000  1.231161e-001  4.334822e-001 
5870000000  1.331089e-001  4.344995e-001 
5875000000  1.431188e-001  4.352324e-001 
5880000000  1.531150e-001  4.355955e-001 
5885000000  1.631711e-001  4.355204e-001 
5890000000  1.731402e-001  4.350287e-001 
5895000000  1.835264e-001  4.342214e-001 
5900000000  1.936818e-001  4.329641e-001 
5905000000  2.036755e-001  4.310328e-001 
5910000000  2.140235e-001  4.283504e-001 
5915000000  2.239330e-001  4.252465e-001 
5920000000  2.339384e-001  4.215360e-001 
5925000000  2.437867e-001  4.172062e-001 
5930000000  2.524353e-001  4.126583e-001 
5935000000  2.617399e-001  4.078734e-001 
5940000000  2.706360e-001  4.030035e-001 
5945000000  2.794943e-001  3.978831e-001 
5950000000  2.884288e-001  3.925830e-001 
5955000000  2.971963e-001  3.872134e-001 
5960000000  3.062337e-001  3.812862e-001 
5965000000  3.151255e-001  3.747622e-001 
5970000000  3.235437e-001  3.678297e-001 
5975000000  3.316220e-001  3.606833e-001 
5980000000  3.395169e-001  3.530380e-001 
5985000000  3.464800e-001  3.456428e-001 
5990000000  3.532662e-001  3.380026e-001 
5995000000  3.595870e-001  3.302380e-001 
6000000000  3.654820e-001  3.226954e-001 
